H2O MD                                  
   1.00000000000000     
    11.7041704315444228    0.0864463124073232    0.1846155152750695
    -0.0000000000000498   12.0353133898025693    0.0330023054338166
     0.0000000000012226    0.0000000000002755   11.7638276101162038
   O    H 
    64   128
Direct
  0.8154316683128640  0.1517306904789316  0.2755259628755418
  0.5508780559447847  0.5135695684088579  0.7347160558000809
  0.6730670194448107  0.1101158477434538  0.8484811218340003
  0.1675390158431501  0.8792110884843753  0.3777956468965652
  0.5072520995771225  0.5873315380223646  0.3992060645212997
  0.7811537246542521  0.2838572690848315  0.9134608954547307
  0.8352642370136250  0.2430946995424347  0.5011827429037973
  1.0275002381048366  1.0411910230209651  0.3777512469987575
  0.2925321790264952  0.4874016400764574  0.4778483311873410
  0.7413307645306145  0.7162886071456273  0.4728613751757670
  0.1325773771371421  0.7313463438594120  0.9220929110711212
  0.2366670503232007  0.1295832719517602  0.7871726328630454
  0.6183968107519779  1.0051495214879194  0.3123146042511249
  0.0403793331529765  0.7204145689071463  0.2985902647893634
  0.2121037492236393  0.8483906157706810  0.0839236101983308
  0.1468004277214432  0.5295120714272991  1.0061611935743493
  0.5359488960282898  0.7031052666455806  0.0884779245535350
  0.0330060791267970  0.1525231266073533  0.6911758017340619
  0.6956459530928654  0.0091048762184042  1.0552864562349669
  0.3415801102872396  0.0857604654522270  0.5467771002161969
  0.5302251773287942 -0.0336818265585360  0.5674349403710329
  0.8690469498900320  0.7339683267061448  0.1531373452494078
  0.3178421473253944  0.0197955555858258  0.9707938816670361
  0.4215338825020116  0.5719310445287918  0.1979898429232365
  0.5037930087141645  0.8836089957813051  0.9763656558907697
  0.4383183528814921  0.7950370896150458  0.4520884616063200
  0.3111293175331222  0.2782989606661507  0.3791621234651092
  0.9168155218290862  0.5841733098370444  0.4367999447059973
  0.6651094661168008  0.3885510081645554  0.3294624062254952
  0.9737708856032652  0.8346191918960915  0.8322085698340618
  0.2006428058709298  0.5884499549168613  0.2106729852387571
  0.8418552800647734  0.9209716243217879  0.4943245334141252
  0.8947006717805823  0.4353139075897863  0.2910098864181363
  0.9141633813497567  0.9193040125942714  0.0482780062314482
  0.1931951414318551  0.4823367791539665  0.6893283130794207
  0.0963859701196897  1.0256296224054289  0.1416406923422623
  0.4587815959322538  0.2030288451546334  0.8266910253958965
  0.5641831334080939  0.3027671955288978  0.6476815968322384
  0.3032653914162797  0.7366585643031492  0.7569118758200568
  0.8584952177507109  0.6801247538036282  0.7673215400081429
  0.5450931664956860  0.4098213965011817  0.1424150746197007
  1.0117413314439543  0.9296631201188988  0.6379226729882991
  0.7212031475230346  0.0645549584800870  0.6332630721843608
  0.6727073791820610  0.7964112027842296  0.2455302530193189
  0.6029362707949479  0.5198548460597475  0.9462530669607537
  1.0707785750992438  0.2393633561326052  0.4714509935052368
  0.9289002991341552  0.1943684579774237  1.0796820000537006
  0.1671048452453053  0.7780016062363453  0.5722186930454159
  0.0287372709176442  0.6253364140817981  0.6209000246708707
  0.3605251535763342  0.8545183588883881  0.2544242341893524
  0.1325832770544127  0.3694093718911141  0.2513232235166698
  0.3821880534373774  0.0856227207382143  0.1877898579925118
  0.8153203343858748  0.5946065419537422  0.9794883753225095
  0.4903168159221274  0.8607104794448459  0.7567131835203146
  0.9483972941966305  0.4395300514765939  0.0687681674935936
  0.7864590216731165  0.4505275675406150  0.5857667394714002
  0.3766538298072954  0.3537026786539908  1.0016288920377900
  0.6542386487878874  0.7119954185397760  0.6708529105453370
  0.1475064076420815  0.3292601754727227  0.8528742906136454
  0.5356867692961937  0.2109581776073897  0.4086731693439578
  0.2144467509275477  0.2261768600487385  0.0931404950232849
  0.3629856583789106  0.5381752192831999  0.8452396249454730
  0.6102145091047527  0.1926891558736043  0.1460571234418225
  0.9191154636505929  0.3488970150541140  0.7495776598823470
  0.7851571228939203  0.0781860434402293  0.2931031623526271
  0.5909266680833377  0.5127064682629959  0.8080892867700309
  0.5938324585803700  0.1343203020058529  0.8418978795286207
  0.1247825559176862  0.9533586548607527  0.3855484488246190
  0.4416256024955660  0.5437518144194269  0.4402972526944855
  0.8412283802941650  0.2503631174332249  0.9647447084724496
  0.8206041152518467  0.3192681867558388  0.5303642568844669
  0.0402368328360088  0.1199044464106078  0.4145177004720707
  0.2505131285929735  0.4916145796816362  0.5518436711960238
  0.7007803334580764  0.7091502713341880  0.5493299101888832
  0.1916792556366008  0.7511234469932716  0.8641731258677983
  0.2415581712372386  0.0652725768822976  0.8436691578794751
  0.5882494380738054  0.0788333989758053  0.3353363724044542
  1.0052842408855573  0.6735926882185074  0.3608438107452649
  0.2701411940006354  0.8157568606216767  0.1370238513754010
  0.1379010960088964  0.6013367988409246  0.9639319699353029
  0.5942839496263357  0.7364440996828941  0.1395865670980726
  0.0033977194520344  0.0837186867057772  0.6514017478561511
  0.7767089219981295  0.9913959600357707  0.0581857240087729
  0.3221022641043454  0.1053552379596247  0.6275413742460428
  0.4600025822404892  0.0184401058371249  0.5583569737982588
  0.9354396522680104  0.7205244934812768  0.2038978477678264
  0.2598721223016391  0.9690721793703166  1.0068002363365087
  0.4579009964978851  0.6326995485110903  0.1495581293316956
  0.5152313795217806  0.8884511090688358  0.8901156749518838
  0.4956526385469672  0.8463006976751584  0.4814558779910498
  0.3033593349924397  0.3449336576288073  0.4253841837398903
  0.9524085326122813  0.5879815506490536  0.5175130752035823
  0.6160832697857681  0.3925464755833542  0.2589854811517591
  0.9557242671731349  0.8871428308280991  0.8957392061613315
  0.1376986188150016  0.6428404575450992  0.2384563399369379
  0.8186509415490016  0.8491371909945206  0.4655033454710354
  0.9083519456447856  0.4907524941760057  0.3554348229078791
  0.9651385163129141  0.9561475394321228  0.0960576161997512
  0.1617747328610709  0.4222972156673738  0.7390562262943524
  0.1351741130038713  0.9540216202906433  0.1345257002669795
  0.3817779826154047  0.1872700332070939  0.7931833365144939
  0.5245091527923822  0.2610140542617496  0.7095559291478650
  0.3281722977000057  0.6628478766972639  0.7831780910739297
  0.9235202560511838  0.6559396091396176  0.7092458334898419
  0.4823320061015303  0.4577583989427395  0.1665068473894263
  0.9519258348477370  0.9123846419619802  0.5796554242165174
  0.7023530539387840  0.0841448847178871  0.7170941144772220
  0.6620889470396846  0.8733077218380768  0.2282720412284453
  0.5641809120192982  0.5840052834152041  0.9905354249575355
  1.0936634588069996  0.2023782633210400  0.5454016407782204
  0.8964809157018241  0.1829700762416887  0.1562664747637578
  0.1791806108578111  0.8142442763215729  0.4927811267088736
  0.0929991017585129  0.5723964301805632  0.6438599718321386
  0.3766117055027231  0.9366950196469637  0.2406300052644557
  0.1599690152110585  0.4439636359853079  0.2277132331871138
  0.3524312999366487  0.0752924017345909  0.1056260387968679
  0.8438211710108168  0.6192894929913573  0.8986004267904593
  0.4908224304345030  0.9171752860911111  0.6945572840500294
  0.9594923363358333  0.3582373349446072  0.0646606915832478
  0.7144610277921818  0.4424270867165478  0.6196356550624246
  0.4300432331835208  0.3780139465551153  1.0600044795990249
  0.6195703365877573  0.6383104599052283  0.6798287905936852
  0.1825249409270113  0.2517534263329423  0.8491030675268101
  0.4600691029392752  0.2364100076659259  0.3818515224515615
  0.1788609568042276  0.2784406229648768  0.1505165729413633
  0.3416281898276511  0.4941120765093108  0.9142114461751562
  0.5799091967283698  0.2596327506097627  0.1101194969641756
  0.8595575738044029  0.3355748518896104  0.8086300372450129
  0.7498169233154850  0.1896307641146500  0.2410103261796606
  0.5485444478037494  0.4366690592494956  0.7040756582796905
  0.6844956039815528  0.0597552038603573  0.9179577094442215
  0.2402758873672376  0.8725456263287026  0.3220078031958813
  0.4767337473920745  0.5875036741762810  0.3185370344982386
  0.7390882163554973  0.2210069526032824  0.8766877466027986
  0.8192523639489657  0.2444681851419004  0.4196870129823294
  0.9698605540235701  1.0043150799501244  0.4277417870285505
  0.2455302325333984  0.5240043042825216  0.4240933581810815
  0.6907336391004756  0.7343268292205062  0.4075887965743137
  0.0641546561082784  0.7584372377693649  0.8770785584694129
  0.1545414422655776  0.1285427788737416  0.7464362673502343
  0.5989390351583129  0.9566552066355172  0.3730820730574124
  0.0762778898015627  0.7944929330778986  0.3258809339756694
  0.1797307025631223  0.7854134817241987  1.0385306218241004
  0.0726037626117148  0.4984392785270438  1.0280055108240989
  0.5083830662063963  0.7692694134496576  1.0418276755205003
 -0.0237505590500037  0.2153901081578506  0.6996504900108667
  0.6823355164615701  0.0842455546738612  0.0830290365856025
  0.3236001936704642  0.1454213995412708  0.4940711884239474
  0.5970474406537556  0.0143451665486185  0.5705136552818956
  0.8477211251868760  0.6734326484938665  0.0995653561785283
  0.3778709259469465  0.9582165489773009  0.9768306809218127
  0.3371924111482513  0.5851917644561091  0.2049772750102629
  0.5680966002348784  0.9214322108419466  1.0148405576519723
  0.4761667686599524  0.7266940759910864  0.4328118078717262
  0.2377928424071917  0.2745804462228174  0.3381489775508736
  0.8467469812628851  0.6336881214792345  0.4463833414485364
  0.6442031833544333  0.4509595247788458  0.3721349847932322
  0.9873813070266028  0.8799996876050217  0.7587402222909462
  0.1790500471366356  0.5728958097252316  0.1263968904701642
  0.7833658956156592  0.9354241573485800  0.5586769692007449
  0.8167294704295683  0.4058309899556547  0.3015182908229314
  0.8909802681341574  0.8460675906241149  0.0888290919464464
  0.2477052202929494  0.5170286660840850  0.7423185693079681
  0.0788390330131186  1.0309314043541791  0.2245368080464603
  0.4403345765722219  0.2665020796933060  0.8779145883142059
  0.5586420435308237  0.2765189893588823  0.5702723114173226
  0.3701363177935327  0.7895249240978004  0.7566427545127309
  0.8889107227510232  0.7538973826737914  0.7960424607645596
  0.5763587117676906  0.4388595977679089  0.0702690903972913
  1.0797307856272633  0.8762606169251248  0.6307090613370613
  0.7596721322141419  0.1270758989900061  0.5912616972302834
  0.7501515964429378  0.7685469716282024  0.2147024421177409
  0.6905426904258712  0.5421590882114173  0.9467153807843821
  0.9870980417009820  0.2558337839633348  0.4855494687411425
  0.9654163441397167  0.1177600414165773  0.0512505527078380
  0.2302248674298552  0.7775166589791707  0.6268173568365105
  0.0774157083815362  0.6931459189806846  0.5949559806070482
  0.4071974907661371  0.8304895027822856  0.3235459507891508
  1.0618877458720537  0.3980484963188680  0.2865731465478161
  0.3480032102378103  0.1584026058338095  0.2090943264077079
  0.8632291601701456  0.5304177846548760  0.0018384485755826
  0.5448152923639078  0.8018149961627513  0.7404165010151734
  0.9329208126685575  0.4511676761217182  0.1516969327993899
  0.8424350752493713  0.4446060946193491  0.6449969532183435
  0.3229686673165603  0.2951772564936126  1.0325290027058089
  0.7317397276388846  0.6994818922267538  0.7088850436289784
  0.1773848331230044  0.3627393114759974  0.9218312361312390
  0.5899182163957108  0.2733849830003955  0.4000757824371077
  0.1839649512428447  0.1504459688750376  0.1057254836557129
  0.4365855422401968  0.5153714381933303  0.8042103197697978
  0.5475747940246617  0.1453120514392779  0.1720372207928326
 -0.0186210604981661  0.3446654498103938  0.8021351240585310
Lattice velocities and vectors
           1
 -0.40695523E-02 -0.73114586E-02 -0.63200363E-02
  0.58101952E-02  0.38009745E-02 -0.33578371E-02
  0.20219386E-03  0.29311883E-03  0.18545384E-02
  0.11700055E+02  0.84780019E-01  0.17849894E+00
 -0.50843261E-13  0.12039112E+02  0.29944252E-01
  0.12208424E-11  0.27481208E-12  0.11765682E+02
 
  0.95117020E-03  0.28805316E-02 -0.45410693E-02
 -0.37540291E-02 -0.30902014E-02  0.31275610E-02
 -0.25676398E-02 -0.17819740E-02 -0.26633737E-02
 -0.65515053E-02 -0.22694441E-02 -0.63284797E-02
 -0.34898521E-02 -0.67200231E-02 -0.30299940E-02
 -0.13871633E-03  0.38271781E-03 -0.10951103E-02
 -0.24169599E-02 -0.48291772E-02 -0.57614031E-03
 -0.31170223E-02  0.33113383E-02  0.61119278E-02
  0.94648786E-03 -0.39121876E-03  0.31474039E-02
  0.16569256E-03  0.21215663E-02 -0.23989846E-02
 -0.19185544E-02  0.22073540E-02 -0.25445197E-02
 -0.41133066E-03  0.38958594E-02 -0.36581588E-02
  0.30989384E-02  0.11380541E-02 -0.88966076E-02
 -0.27708551E-02 -0.78125171E-02  0.82499422E-03
 -0.28832150E-02 -0.24641747E-02  0.31199379E-02
 -0.40747553E-02  0.50377937E-04 -0.17174646E-02
 -0.75626910E-02  0.49959737E-02  0.79559815E-02
 -0.64662671E-02 -0.16631641E-02  0.77612733E-02
 -0.12912298E-02 -0.14237775E-02  0.19323097E-02
 -0.27074398E-02  0.53302453E-02  0.45520720E-02
  0.62124940E-02  0.10172867E-01  0.60371470E-02
 -0.87683662E-02  0.13144760E-02  0.35914944E-02
  0.18450833E-02 -0.93511362E-02 -0.25284954E-02
 -0.26577225E-02  0.57429869E-02  0.41972542E-02
  0.11779397E-01 -0.63596945E-02 -0.35635314E-02
  0.18242638E-02 -0.32991064E-02  0.33006761E-02
  0.45971707E-02  0.92792380E-02  0.54839198E-02
  0.15743811E-02  0.28895754E-02  0.15880718E-02
  0.12268501E-02 -0.14149262E-04 -0.17971592E-02
 -0.19756444E-02  0.47836677E-02  0.15464166E-02
  0.16140867E-02  0.63665330E-03  0.44267746E-02
 -0.38877218E-02 -0.25742911E-02 -0.44234397E-03
  0.21253681E-02  0.10110562E-01 -0.82148675E-02
  0.12431853E-02  0.61646076E-04  0.63545350E-03
 -0.48822571E-02 -0.48466046E-03  0.39857481E-02
  0.25410029E-02 -0.17694661E-02  0.37246959E-03
  0.16249896E-02  0.51423729E-03  0.16009162E-02
  0.33385849E-02  0.29501590E-02  0.54635160E-02
 -0.57309848E-02 -0.17045730E-02  0.45824491E-02
 -0.54521434E-02 -0.23752605E-02  0.31480841E-02
  0.59641766E-04 -0.62623265E-02 -0.34302518E-02
 -0.68603713E-02  0.31145368E-03  0.59576683E-02
  0.70014833E-02 -0.72783106E-02 -0.54657074E-04
  0.13193069E-01  0.20323931E-02  0.49178277E-02
  0.22555606E-02  0.36046778E-02 -0.73639683E-02
  0.61100903E-02  0.12225942E-02 -0.13208213E-02
  0.47965404E-03  0.29400938E-02  0.49467278E-02
  0.19437669E-03 -0.27407725E-02  0.44757787E-02
  0.82298380E-03  0.78857691E-02 -0.24404059E-02
 -0.13149726E-02  0.62026336E-02 -0.18525955E-03
  0.22446335E-02  0.66345190E-02  0.24474620E-02
 -0.54574856E-02 -0.17295474E-02  0.32712078E-02
 -0.63986086E-03 -0.12455305E-02  0.29521538E-02
 -0.32082200E-02  0.15477049E-03  0.85517291E-03
 -0.16987320E-02 -0.30601853E-02 -0.10136099E-01
  0.57249583E-02  0.34141494E-02 -0.35960827E-02
  0.14133050E-02  0.35449554E-02 -0.93703031E-02
  0.52554425E-03  0.48310216E-02  0.17291813E-02
 -0.29905825E-02 -0.10276852E-02 -0.11639701E-03
  0.92709036E-02 -0.27193353E-02 -0.36588250E-03
 -0.99649148E-03  0.48648761E-02 -0.11054178E-01
  0.38977620E-02 -0.21346114E-02  0.12009717E-02
  0.42788262E-02 -0.60466983E-02 -0.28914795E-02
  0.47085544E-04 -0.30039095E-02  0.93359201E-02
  0.40648298E-02  0.22697130E-01  0.16546477E-02
 -0.51293007E-03  0.20609862E-01  0.65205735E-02
 -0.55781126E-02  0.14650095E-01 -0.30246470E-01
 -0.20425758E-01 -0.46006477E-02  0.16870809E-01
  0.67273271E-02 -0.17338286E-02 -0.15684357E-01
 -0.27383719E-01 -0.39596017E-02 -0.23579695E-01
  0.88994984E-02  0.17529160E-03 -0.23954483E-01
 -0.15842323E-02  0.88485609E-02 -0.18741680E-01
 -0.49061367E-02  0.10689976E-01  0.69649640E-02
 -0.24726160E-01  0.31850284E-01 -0.11931327E-01
  0.72993202E-02  0.10388983E-01  0.78660258E-02
 -0.14516681E-01  0.20686731E-02  0.52139091E-02
  0.19710535E-01  0.14027981E-01  0.42806159E-01
  0.34465818E-01 -0.41646500E-02 -0.13489546E-01
 -0.19676823E-01 -0.28050588E-01 -0.12468548E-01
  0.26864869E-01 -0.87979278E-02 -0.13597522E-01
 -0.89543207E-02  0.73960615E-02  0.12063440E-01
  0.12043716E-01  0.12790905E-01  0.16446383E-01
 -0.34080562E-02  0.13171187E-01  0.45939375E-03
 -0.20866795E-01 -0.49959939E-02 -0.22425030E-01
 -0.22794930E-02  0.16681740E-01 -0.87195706E-02
  0.12688363E-01  0.11064029E-01 -0.19714414E-01
 -0.10103056E-01 -0.13812796E-01 -0.29994557E-01
 -0.16177343E-01  0.37474325E-03  0.14796125E-02
 -0.30152906E-01  0.80611575E-02  0.32212391E-01
  0.53271689E-02 -0.43254144E-02  0.69043833E-02
  0.20153584E-01  0.27407504E-02 -0.20639087E-01
 -0.29663451E-02  0.20232895E-01  0.15644202E-01
 -0.18782791E-01  0.12799333E-01 -0.31868107E-01
 -0.15904543E-01 -0.40124714E-01  0.53229375E-02
  0.42579855E-02 -0.27967756E-01  0.23427691E-01
  0.10822217E-01 -0.36647678E-02 -0.51041923E-02
 -0.72787424E-02 -0.93588075E-02  0.11173780E-01
 -0.12477482E-01  0.25163608E-01  0.10991945E-01
  0.18039001E-01 -0.96409472E-02  0.65761830E-02
  0.17568856E-01 -0.18763891E-01  0.77922624E-02
  0.33410492E-01  0.13270985E-01 -0.57029573E-02
  0.48397332E-02  0.18946579E-01  0.19432632E-02
  0.59541371E-02  0.62176353E-02  0.63542908E-02
 -0.74635543E-02 -0.79090561E-02  0.27604751E-01
 -0.37058375E-01 -0.78466982E-03  0.40877767E-02
  0.25638110E-03 -0.29233020E-01  0.35083089E-01
  0.79249022E-02 -0.14982523E-01 -0.11506662E-01
 -0.53070426E-02  0.32491171E-02  0.46458524E-02
 -0.59019165E-02 -0.20397958E-01  0.11006686E-01
 -0.25106943E-01  0.20632393E-01 -0.17555458E-02
 -0.98820642E-02 -0.23572280E-02 -0.58979186E-02
  0.13708073E-01 -0.38320618E-02  0.21697483E-01
  0.75779153E-02 -0.16710748E-01  0.24044705E-01
  0.55234290E-02 -0.59698691E-02 -0.21080825E-01
 -0.12132249E-01  0.10883887E-01  0.14180208E-01
  0.17041039E-02  0.14620547E-01  0.26301619E-02
  0.10739498E-01 -0.10316884E-01 -0.15004771E-02
 -0.11890826E-01 -0.36969588E-02  0.50460344E-02
 -0.35666380E-02 -0.14055686E-02 -0.21470093E-01
 -0.24095339E-01 -0.35987403E-02  0.10542192E-01
 -0.12228343E-01  0.14444272E-01 -0.46313038E-02
 -0.23767651E-01  0.10481725E-01  0.13317082E-01
 -0.32027511E-02 -0.28390525E-02 -0.45643884E-02
  0.15592945E-01 -0.20702556E-01  0.42867265E-02
  0.19664211E-02  0.16093090E-01  0.98218938E-02
  0.98840207E-02  0.13784531E-01 -0.14707006E-01
  0.88087641E-02 -0.53472696E-03 -0.10294079E-01
 -0.14045481E-01 -0.31707244E-01 -0.87871807E-02
  0.76061047E-02  0.18266666E-03 -0.24454848E-01
  0.55127677E-02 -0.40534548E-01 -0.84526034E-02
  0.56996763E-02  0.23125221E-01 -0.99087312E-02
  0.29939391E-02  0.32647785E-02  0.98163087E-02
 -0.15703880E-01 -0.10836259E-01  0.51879954E-01
  0.14812375E-02 -0.56205043E-02 -0.20562270E-01
 -0.14376491E-02 -0.12579841E-01  0.11001082E-01
  0.11626803E-01  0.25154642E-01  0.12732619E-01
  0.87842857E-02 -0.13189315E-01  0.46949658E-02
  0.29065641E-01 -0.46484976E-02  0.25005578E-01
 -0.42882675E-02 -0.16729108E-01  0.14888517E-01
  0.29006007E-01  0.13598643E-01  0.14491708E-02
  0.12886964E-01  0.25855071E-02  0.23171174E-01
 -0.48213119E-02 -0.30906507E-01 -0.20229721E-01
 -0.35827454E-01 -0.60453245E-02 -0.18176967E-01
 -0.60884049E-03  0.15549955E-01 -0.61547210E-02
  0.35929487E-02  0.62805333E-03 -0.71868123E-02
 -0.44194034E-02 -0.18371944E-01  0.26296683E-02
  0.63238737E-02  0.31650324E-01 -0.19703132E-01
  0.15368977E-01  0.27790026E-03  0.10607266E-01
 -0.87097159E-02  0.12201381E-02 -0.97939424E-02
 -0.10656333E-01 -0.39016067E-01  0.16263038E-01
  0.17654769E-02  0.11966989E-01 -0.10909109E-01
 -0.30414158E-01  0.48045661E-02 -0.15914973E-03
 -0.37393850E-02  0.93634441E-02  0.16320760E-01
  0.39950648E-01  0.20988568E-02 -0.38394448E-01
 -0.28841495E-01  0.71777227E-03  0.16339476E-01
  0.41147174E-02 -0.20395096E-01  0.22307886E-01
 -0.29621644E-02 -0.12104449E-01 -0.26896879E-02
  0.14660497E-01  0.71725187E-02 -0.11288756E-01
  0.32510931E-03  0.26513949E-01  0.43119943E-02
 -0.19741343E-01  0.17377037E-01 -0.21458410E-01
  0.40365201E-02 -0.36213687E-01  0.26299233E-02
 -0.40358615E-02  0.43691990E-02 -0.14220221E-01
  0.46486859E-02 -0.38816950E-02  0.56858353E-02
 -0.31211338E-01  0.11209746E-01 -0.40314384E-02
 -0.54090409E-02 -0.66718053E-02 -0.59199764E-02
 -0.25441015E-01 -0.79095438E-02 -0.11377022E-02
  0.83883812E-03  0.11628222E-01 -0.73959466E-02
  0.65674743E-02 -0.24535281E-01 -0.31478256E-01
 -0.14926775E-01  0.55872624E-02  0.30139719E-02
 -0.23895914E-02 -0.86583618E-02 -0.52258719E-02
  0.25445895E-01  0.82005936E-04 -0.19856650E-01
  0.13305593E-01  0.36354708E-02  0.80109014E-03
 -0.39137215E-01 -0.54136816E-01  0.62287774E-02
  0.40028387E-02  0.13125316E-01 -0.92493798E-02
  0.37996854E-02  0.33081556E-01  0.20658290E-02
 -0.24510123E-01 -0.51847966E-03 -0.18692103E-01
  0.19966859E-02 -0.25569332E-01 -0.23352477E-01
  0.21957428E-01  0.10552510E-01 -0.99237219E-02
  0.40010839E-02  0.10388528E-01  0.65515056E-02
 -0.12965018E-01 -0.38595039E-03  0.11648684E-02
 -0.29630137E-01  0.84526778E-03 -0.24341189E-02
  0.63940029E-03 -0.31250307E-02  0.57504301E-02
  0.14290571E-01  0.24970089E-03 -0.46439585E-02
  0.33552978E-02 -0.17342498E-01  0.28495673E-01
  0.17099915E-01  0.99326180E-02 -0.23084489E-02
  0.17375904E-01  0.10002446E-01  0.84163662E-03
 -0.13722858E-01 -0.11825226E-01 -0.17126998E-01
 -0.17432451E-01 -0.53164322E-03 -0.70680380E-02
 -0.22863432E-01 -0.19008897E-01  0.18716349E-01
  0.27907773E-01 -0.82061505E-02  0.18548171E-01
  0.22026227E-01  0.97953000E-02  0.42471799E-01
  0.19823952E-02  0.18721237E-01 -0.33411856E-02
 
           1
   1.00000000000000     
  0.10000000E+01  0.00000000E+00  0.00000000E+00  0.00000000E+00
  0.81551296E+00  0.15196938E+00  0.27513816E+00
  0.55055720E+00  0.51331515E+00  0.73498739E+00
  0.67284756E+00  0.10996938E+00  0.84825846E+00
  0.16697906E+00  0.87902653E+00  0.37726674E+00
  0.50695382E+00  0.58677546E+00  0.39895448E+00
  0.78114187E+00  0.28388914E+00  0.91336792E+00
  0.83505766E+00  0.24269503E+00  0.50113793E+00
  0.27233827E-01  0.41467947E-01  0.37827405E+00
  0.29261308E+00  0.48736857E+00  0.47811470E+00
  0.74134493E+00  0.71646473E+00  0.47265682E+00
  0.13241340E+00  0.73153085E+00  0.92187866E+00
  0.23663189E+00  0.12990712E+00  0.78686142E+00
  0.61866168E+00  0.52421860E-02  0.31155420E+00
  0.40142509E-01  0.71976731E+00  0.29866562E+00
  0.21185732E+00  0.84818767E+00  0.84193038E-01
  0.14645216E+00  0.52951871E+00  0.60204879E-02
  0.53530252E+00  0.70352480E+00  0.89162865E-01
  0.32453409E-01  0.15238887E+00  0.69184418E+00
  0.69553559E+00  0.89873907E-02  0.55452662E-01
  0.34134871E+00  0.86204839E-01  0.54716637E+00
  0.53075616E+00  0.96715942E+00  0.56793786E+00
  0.86829752E+00  0.73408279E+00  0.15345368E+00
  0.31799985E+00  0.19017715E-01  0.97057856E+00
  0.42130673E+00  0.57240967E+00  0.19834881E+00
  0.50479979E+00  0.88307365E+00  0.97604887E+00
  0.43847427E+00  0.79476196E+00  0.45236733E+00
  0.31152224E+00  0.27906695E+00  0.37962030E+00
  0.91695008E+00  0.58441238E+00  0.43693227E+00
  0.66521432E+00  0.38854909E+00  0.32930807E+00
  0.97360203E+00  0.83501772E+00  0.83234155E+00
  0.20078076E+00  0.58850187E+00  0.21104700E+00
  0.84152300E+00  0.92076014E+00  0.49429252E+00
  0.89488233E+00  0.43615244E+00  0.29030679E+00
  0.91426964E+00  0.91930838E+00  0.48330392E-01
  0.19277786E+00  0.48229946E+00  0.68967350E+00
  0.96603149E-01  0.25481117E-01  0.14166943E+00
  0.45892048E+00  0.20307058E+00  0.82682488E+00
  0.56446848E+00  0.30301023E+00  0.64814101E+00
  0.30277557E+00  0.73652043E+00  0.75730913E+00
  0.85802922E+00  0.67993074E+00  0.76759667E+00
  0.54509826E+00  0.40930120E+00  0.14212477E+00
  0.11154978E-01  0.92969312E+00  0.63843785E+00
  0.72180156E+00  0.63946189E-01  0.63325090E+00
  0.67383499E+00  0.79657208E+00  0.24593072E+00
  0.60312905E+00  0.52015290E+00  0.94562350E+00
  0.71300803E-01  0.23946123E+00  0.47133056E+00
  0.92894130E+00  0.19461238E+00  0.80101194E-01
  0.16712146E+00  0.77777383E+00  0.57259943E+00
  0.28807611E-01  0.62599093E+00  0.62068987E+00
  0.36041276E+00  0.85503436E+00  0.25440888E+00
  0.13277513E+00  0.36995910E+00  0.25152693E+00
  0.38172160E+00  0.85482345E-01  0.18807532E+00
  0.81526565E+00  0.59450347E+00  0.97974038E+00
  0.49004261E+00  0.86072527E+00  0.75678999E+00
  0.94825210E+00  0.43927689E+00  0.67909518E-01
  0.78694833E+00  0.45080771E+00  0.58545296E+00
  0.37677462E+00  0.35399628E+00  0.82990254E-03
  0.65428357E+00  0.71239638E+00  0.67099818E+00
  0.14725080E+00  0.32917661E+00  0.85286849E+00
  0.53647915E+00  0.21072672E+00  0.40863064E+00
  0.21436158E+00  0.22658155E+00  0.92201230E-01
  0.36331880E+00  0.53799557E+00  0.84533710E+00
  0.61058022E+00  0.19218433E+00  0.14580710E+00
  0.91911949E+00  0.34864747E+00  0.75037172E+00
  0.78550454E+00  0.80068880E-01  0.29323373E+00
  0.59088283E+00  0.51441869E+00  0.80863980E+00
  0.59335570E+00  0.13554053E+00  0.83933127E+00
  0.12303677E+00  0.95298881E+00  0.38700978E+00
  0.44220059E+00  0.54360375E+00  0.43895585E+00
  0.83888790E+00  0.25005070E+00  0.96277690E+00
  0.82136475E+00  0.31927739E+00  0.52831673E+00
  0.40101429E-01  0.12064038E+00  0.41292497E+00
  0.25009380E+00  0.49250547E+00  0.55243974E+00
  0.69866700E+00  0.71181072E+00  0.54834112E+00
  0.19230313E+00  0.75198199E+00  0.86483003E+00
  0.24031744E+00  0.65453144E-01  0.84413067E+00
  0.58993409E+00  0.79986736E-01  0.33894610E+00
  0.82300236E-02  0.67322602E+00  0.35965354E+00
  0.26845942E+00  0.81343875E+00  0.13599553E+00
  0.14019723E+00  0.60058985E+00  0.96274334E+00
  0.59351863E+00  0.73706383E+00  0.14062191E+00
  0.44270921E-02  0.84773884E-01  0.65278127E+00
  0.77641764E+00  0.99249204E+00  0.58226399E-01
  0.32031879E+00  0.10495282E+00  0.62566349E+00
  0.45980775E+00  0.19827107E-01  0.55761530E+00
  0.93652412E+00  0.72143586E+00  0.20220349E+00
  0.25900862E+00  0.96793093E+00  0.42669155E-02
  0.45651832E+00  0.63274041E+00  0.14970476E+00
  0.51265422E+00  0.88913884E+00  0.89289085E+00
  0.49610795E+00  0.84593821E+00  0.48203672E+00
  0.30508186E+00  0.34514918E+00  0.42360333E+00
  0.95215500E+00  0.58966393E+00  0.51884229E+00
  0.61447791E+00  0.39362093E+00  0.25629854E+00
  0.95436491E+00  0.88381954E+00  0.89622070E+00
  0.13806255E+00  0.64051482E+00  0.24044793E+00
  0.81957591E+00  0.84882627E+00  0.46505628E+00
  0.90772983E+00  0.48997951E+00  0.35639592E+00
  0.96407207E+00  0.95824520E+00  0.97002695E-01
  0.16331652E+00  0.42148556E+00  0.73959383E+00
  0.13667572E+00  0.95245247E+00  0.13516920E+00
  0.38463357E+00  0.18835225E+00  0.79265255E+00
  0.52492280E+00  0.26258489E+00  0.70971082E+00
  0.32868120E+00  0.66336075E+00  0.78370914E+00
  0.92288235E+00  0.65528715E+00  0.71160338E+00
  0.47916464E+00  0.45771553E+00  0.16690244E+00
  0.95194775E+00  0.90995632E+00  0.58264309E+00
  0.70303039E+00  0.82895627E-01  0.71610903E+00
  0.66163536E+00  0.87358080E+00  0.22867309E+00
  0.56367648E+00  0.58231453E+00  0.99148287E+00
  0.91517576E-01  0.20410716E+00  0.54528059E+00
  0.89563630E+00  0.18278023E+00  0.15577849E+00
  0.18035224E+00  0.81391772E+00  0.49460832E+00
  0.93646784E-01  0.57100383E+00  0.64589732E+00
  0.37708379E+00  0.93619582E+00  0.23883239E+00
  0.15893208E+00  0.44487498E+00  0.22893186E+00
  0.35257695E+00  0.76505797E-01  0.10584429E+00
  0.84473907E+00  0.61842608E+00  0.89846117E+00
  0.48980613E+00  0.91687536E+00  0.69500234E+00
  0.95918750E+00  0.35812273E+00  0.62840802E-01
  0.71240161E+00  0.44214267E+00  0.62056363E+00
  0.42899808E+00  0.37922109E+00  0.59623635E-01
  0.61753892E+00  0.63919540E+00  0.68098922E+00
  0.18225120E+00  0.25151953E+00  0.84871987E+00
  0.46140183E+00  0.23468101E+00  0.38220005E+00
  0.17902903E+00  0.27977617E+00  0.15134542E+00
  0.34247297E+00  0.49525111E+00  0.91294574E+00
  0.58066208E+00  0.25958303E+00  0.10923328E+00
  0.85835711E+00  0.33294962E+00  0.80790808E+00
  0.75046701E+00  0.18964136E+00  0.23892195E+00
  0.54901562E+00  0.43329884E+00  0.70335868E+00
  0.68498275E+00  0.61672614E-01  0.91710327E+00
  0.24053178E+00  0.87281501E+00  0.32283755E+00
  0.47539154E+00  0.58661304E+00  0.32296909E+00
  0.73921482E+00  0.22053921E+00  0.87493937E+00
  0.81912949E+00  0.24342414E+00  0.42062655E+00
  0.97085429E+00  0.63974920E-02  0.42880359E+00
  0.24628102E+00  0.52290348E+00  0.42448381E+00
  0.69321787E+00  0.73392322E+00  0.40967743E+00
  0.63788139E-01  0.75705026E+00  0.87835307E+00
  0.15702058E+00  0.12965486E+00  0.74651900E+00
  0.60004048E+00  0.95686221E+00  0.37503422E+00
  0.75865814E-01  0.79192866E+00  0.32417433E+00
  0.17666854E+00  0.78493291E+00  0.37033387E-01
  0.72551725E-01  0.49973126E+00  0.27479904E-01
  0.50869015E+00  0.76931942E+00  0.41212061E-01
  0.97587172E+00  0.21386675E+00  0.69988360E+00
  0.68287602E+00  0.86870707E-01  0.81339528E-01
  0.32491378E+00  0.14543523E+00  0.49495277E+00
  0.59630302E+00  0.14451757E-01  0.56969226E+00
  0.84681033E+00  0.67019829E+00  0.10096965E+00
  0.37802182E+00  0.95920950E+00  0.97589867E+00
  0.33459292E+00  0.58560915E+00  0.20500212E+00
  0.56777700E+00  0.92221221E+00  0.16230571E-01
  0.47958134E+00  0.72684437E+00  0.42949637E+00
  0.23532777E+00  0.27465743E+00  0.33957492E+00
  0.84709866E+00  0.63199158E+00  0.44827834E+00
  0.64395001E+00  0.44995588E+00  0.37191278E+00
  0.98863434E+00  0.88058663E+00  0.75776025E+00
  0.17907783E+00  0.57509793E+00  0.12675735E+00
  0.78167861E+00  0.93687942E+00  0.55687505E+00
  0.81707447E+00  0.40282056E+00  0.30174424E+00
  0.89063532E+00  0.84643294E+00  0.87624777E-01
  0.24810254E+00  0.51670344E+00  0.74279663E+00
  0.76171410E-01  0.31881301E-01  0.22423222E+00
  0.43987227E+00  0.26595116E+00  0.87741985E+00
  0.55646761E+00  0.27587731E+00  0.57021024E+00