SYSTEM = H2Otest NPT
PREC=normal
ENCUT = 400
EDIFF = 1e-5
NSW = 10000
POTIM = 1
PSTRESS = 0.001  ##kbar
ISMEAR = 0
SIGMA=0.05
ISIF=3
## Thermodynamics state
IBRION=0
IALGO=48
MDALGO = 3
LANGEVIN_GAMMA = 10 20
LANGEVIN_GAMMA_L = 5
PMASS = 5
TEBEG=300
NBLOCK=5
KBLOCK=1


LREAL = Auto
