Ni
3.70000000
7.00000000 0.00000000 0.00000000
0.00000000 7.00000000 0.00000000
0.00000000 0.00000000 6.00000000
Ni
1062
Direct
0.00000000 0.00000000 0.00000000 T T T
0.07142857 0.07142857 0.00000000 T T T
0.07142857 0.00000000 0.08333333 T T T
0.00000000 0.07142857 0.08333333 T T T
0.00000000 0.00000000 0.16666667 T T T
0.07142857 0.07142857 0.16666667 T T T
0.07142857 0.00000000 0.25000000 T T T
0.00000000 0.07142857 0.25000000 T T T
0.00000000 0.00000000 0.33333333 T T T
0.07142857 0.07142857 0.33333333 T T T
0.07142857 0.00000000 0.41666667 T T T
0.00000000 0.07142857 0.41666667 T T T
0.00000000 0.00000000 0.50000000 T T T
0.07142857 0.07142857 0.50000000 T T T
0.07142857 0.00000000 0.58333333 T T T
0.00000000 0.00000000 0.66666667 T T T
0.07142857 0.07142857 0.66666667 T T T
0.07142857 0.00000000 0.75000000 T T T
0.00000000 0.07142857 0.75000000 T T T
0.00000000 0.00000000 0.83333333 T T T
0.07142857 0.07142857 0.83333333 T T T
0.07142857 0.00000000 0.91666667 T T T
0.00000000 0.07142857 0.91666667 T T T
0.00000000 0.14285714 0.00000000 T T T
0.07142857 0.21428571 0.00000000 T T T
0.07142857 0.14285714 0.08333333 T T T
0.00000000 0.21428571 0.08333333 T T T
0.00000000 0.14285714 0.16666667 T T T
0.07142857 0.21428571 0.16666667 T T T
0.07142857 0.14285714 0.25000000 T T T
0.00000000 0.21428571 0.25000000 T T T
0.00000000 0.14285714 0.33333333 T T T
0.07142857 0.14285714 0.41666667 T T T
0.00000000 0.14285714 0.50000000 T T T
0.07142857 0.21428571 0.50000000 T T T
0.07142857 0.14285714 0.58333333 T T T
0.00000000 0.14285714 0.66666667 T T T
0.07142857 0.21428571 0.66666667 T T T
0.07142857 0.14285714 0.75000000 T T T
0.00000000 0.21428571 0.75000000 T T T
0.00000000 0.14285714 0.83333333 T T T
0.07142857 0.21428571 0.83333333 T T T
0.07142857 0.14285714 0.91666667 T T T
0.00000000 0.28571429 0.00000000 T T T
0.07142857 0.35714286 0.00000000 T T T
0.00000000 0.35714286 0.08333333 T T T
0.00000000 0.28571429 0.16666667 T T T
0.07142857 0.35714286 0.16666667 T T T
0.00000000 0.35714286 0.25000000 T T T
0.00000000 0.28571429 0.33333333 T T T
0.07142857 0.35714286 0.33333333 T T T
0.07142857 0.28571429 0.41666667 T T T
0.00000000 0.35714286 0.41666667 T T T
0.00000000 0.28571429 0.50000000 T T T
0.07142857 0.35714286 0.50000000 T T T
0.07142857 0.28571429 0.58333333 T T T
0.00000000 0.35714286 0.58333333 T T T
0.00000000 0.28571429 0.66666667 T T T
0.07142857 0.35714286 0.66666667 T T T
0.07142857 0.28571429 0.75000000 T T T
0.00000000 0.28571429 0.83333333 T T T
0.07142857 0.35714286 0.83333333 T T T
0.07142857 0.28571429 0.91666667 T T T
0.00000000 0.35714286 0.91666667 T T T
0.00000000 0.42857143 0.00000000 T T T
0.07142857 0.50000000 0.00000000 T T T
0.07142857 0.42857143 0.08333333 T T T
0.00000000 0.50000000 0.08333333 T T T
0.00000000 0.42857143 0.16666667 T T T
0.07142857 0.50000000 0.16666667 T T T
0.07142857 0.42857143 0.25000000 T T T
0.00000000 0.50000000 0.25000000 T T T
0.00000000 0.42857143 0.33333333 T T T
0.07142857 0.50000000 0.33333333 T T T
0.07142857 0.42857143 0.41666667 T T T
0.00000000 0.50000000 0.41666667 T T T
0.00000000 0.42857143 0.50000000 T T T
0.07142857 0.50000000 0.50000000 T T T
0.07142857 0.42857143 0.58333333 T T T
0.00000000 0.50000000 0.58333333 T T T
0.00000000 0.42857143 0.66666667 T T T
0.07142857 0.50000000 0.66666667 T T T
0.07142857 0.42857143 0.75000000 T T T
0.00000000 0.42857143 0.83333333 T T T
0.07142857 0.42857143 0.91666667 T T T
0.00000000 0.50000000 0.91666667 T T T
0.00000000 0.57142857 0.00000000 T T T
0.07142857 0.64285714 0.00000000 T T T
0.07142857 0.57142857 0.08333333 T T T
0.00000000 0.64285714 0.08333333 T T T
0.00000000 0.57142857 0.16666667 T T T
0.07142857 0.64285714 0.16666667 T T T
0.07142857 0.57142857 0.25000000 T T T
0.00000000 0.64285714 0.25000000 T T T
0.07142857 0.64285714 0.33333333 T T T
0.07142857 0.57142857 0.41666667 T T T
0.00000000 0.64285714 0.41666667 T T T
0.00000000 0.57142857 0.50000000 T T T
0.07142857 0.64285714 0.50000000 T T T
0.07142857 0.57142857 0.58333333 T T T
0.00000000 0.64285714 0.58333333 T T T
0.00000000 0.57142857 0.66666667 T T T
0.07142857 0.64285714 0.66666667 T T T
0.07142857 0.57142857 0.75000000 T T T
0.00000000 0.64285714 0.75000000 T T T
0.00000000 0.57142857 0.83333333 T T T
0.07142857 0.64285714 0.83333333 T T T
0.07142857 0.57142857 0.91666667 T T T
0.00000000 0.64285714 0.91666667 T T T
0.00000000 0.71428571 0.00000000 T T T
0.07142857 0.78571429 0.00000000 T T T
0.07142857 0.71428571 0.08333333 T T T
0.00000000 0.78571429 0.08333333 T T T
0.00000000 0.71428571 0.16666667 T T T
0.07142857 0.78571429 0.16666667 T T T
0.07142857 0.71428571 0.25000000 T T T
0.00000000 0.78571429 0.25000000 T T T
0.00000000 0.71428571 0.33333333 T T T
0.07142857 0.78571429 0.33333333 T T T
0.07142857 0.71428571 0.41666667 T T T
0.00000000 0.78571429 0.41666667 T T T
0.00000000 0.71428571 0.50000000 T T T
0.07142857 0.78571429 0.50000000 T T T
0.07142857 0.71428571 0.58333333 T T T
0.00000000 0.78571429 0.58333333 T T T
0.00000000 0.71428571 0.66666667 T T T
0.07142857 0.78571429 0.66666667 T T T
0.07142857 0.71428571 0.75000000 T T T
0.00000000 0.78571429 0.75000000 T T T
0.07142857 0.78571429 0.83333333 T T T
0.07142857 0.71428571 0.91666667 T T T
0.00000000 0.78571429 0.91666667 T T T
0.00000000 0.85714286 0.00000000 T T T
0.07142857 0.92857143 0.00000000 T T T
0.07142857 0.85714286 0.08333333 T T T
0.00000000 0.85714286 0.16666667 T T T
0.07142857 0.92857143 0.16666667 T T T
0.07142857 0.85714286 0.25000000 T T T
0.00000000 0.92857143 0.25000000 T T T
0.00000000 0.85714286 0.33333333 T T T
0.07142857 0.92857143 0.33333333 T T T
0.07142857 0.85714286 0.41666667 T T T
0.00000000 0.92857143 0.41666667 T T T
0.00000000 0.85714286 0.50000000 T T T
0.07142857 0.92857143 0.50000000 T T T
0.00000000 0.92857143 0.58333333 T T T
0.00000000 0.85714286 0.66666667 T T T
0.07142857 0.92857143 0.66666667 T T T
0.07142857 0.85714286 0.75000000 T T T
0.00000000 0.92857143 0.75000000 T T T
0.00000000 0.85714286 0.83333333 T T T
0.07142857 0.92857143 0.83333333 T T T
0.07142857 0.85714286 0.91666667 T T T
0.00000000 0.92857143 0.91666667 T T T
0.14285714 0.00000000 0.00000000 T T T
0.21428571 0.07142857 0.00000000 T T T
0.21428571 0.00000000 0.08333333 T T T
0.14285714 0.07142857 0.08333333 T T T
0.14285714 0.00000000 0.16666667 T T T
0.21428571 0.07142857 0.16666667 T T T
0.21428571 0.00000000 0.25000000 T T T
0.14285714 0.07142857 0.25000000 T T T
0.21428571 0.07142857 0.33333333 T T T
0.21428571 0.00000000 0.41666667 T T T
0.14285714 0.07142857 0.41666667 T T T
0.21428571 0.07142857 0.50000000 T T T
0.21428571 0.00000000 0.58333333 T T T
0.14285714 0.07142857 0.58333333 T T T
0.14285714 0.00000000 0.66666667 T T T
0.21428571 0.07142857 0.66666667 T T T
0.21428571 0.00000000 0.75000000 T T T
0.14285714 0.07142857 0.75000000 T T T
0.14285714 0.00000000 0.83333333 T T T
0.21428571 0.07142857 0.83333333 T T T
0.14285714 0.07142857 0.91666667 T T T
0.14285714 0.14285714 0.00000000 T T T
0.21428571 0.14285714 0.08333333 T T T
0.14285714 0.21428571 0.08333333 T T T
0.14285714 0.14285714 0.16666667 T T T
0.21428571 0.21428571 0.16666667 T T T
0.21428571 0.14285714 0.25000000 T T T
0.14285714 0.21428571 0.25000000 T T T
0.14285714 0.14285714 0.33333333 T T T
0.21428571 0.21428571 0.33333333 T T T
0.21428571 0.14285714 0.41666667 T T T
0.14285714 0.21428571 0.41666667 T T T
0.14285714 0.14285714 0.50000000 T T T
0.21428571 0.21428571 0.50000000 T T T
0.21428571 0.14285714 0.58333333 T T T
0.14285714 0.14285714 0.66666667 T T T
0.21428571 0.21428571 0.66666667 T T T
0.21428571 0.14285714 0.75000000 T T T
0.14285714 0.21428571 0.75000000 T T T
0.14285714 0.14285714 0.83333333 T T T
0.21428571 0.21428571 0.83333333 T T T
0.21428571 0.14285714 0.91666667 T T T
0.14285714 0.28571429 0.00000000 T T T
0.21428571 0.35714286 0.00000000 T T T
0.21428571 0.28571429 0.08333333 T T T
0.14285714 0.35714286 0.08333333 T T T
0.21428571 0.35714286 0.16666667 T T T
0.14285714 0.35714286 0.25000000 T T T
0.14285714 0.28571429 0.33333333 T T T
0.21428571 0.35714286 0.33333333 T T T
0.21428571 0.28571429 0.41666667 T T T
0.14285714 0.35714286 0.41666667 T T T
0.14285714 0.28571429 0.50000000 T T T
0.21428571 0.35714286 0.50000000 T T T
0.21428571 0.28571429 0.58333333 T T T
0.14285714 0.35714286 0.58333333 T T T
0.14285714 0.28571429 0.66666667 T T T
0.21428571 0.35714286 0.66666667 T T T
0.21428571 0.28571429 0.75000000 T T T
0.14285714 0.35714286 0.75000000 T T T
0.14285714 0.28571429 0.83333333 T T T
0.21428571 0.28571429 0.91666667 T T T
0.14285714 0.35714286 0.91666667 T T T
0.14285714 0.42857143 0.00000000 T T T
0.21428571 0.50000000 0.00000000 T T T
0.21428571 0.42857143 0.08333333 T T T
0.14285714 0.50000000 0.08333333 T T T
0.14285714 0.42857143 0.16666667 T T T
0.21428571 0.50000000 0.16666667 T T T
0.21428571 0.42857143 0.25000000 T T T
0.14285714 0.50000000 0.25000000 T T T
0.14285714 0.42857143 0.33333333 T T T
0.21428571 0.50000000 0.33333333 T T T
0.21428571 0.42857143 0.41666667 T T T
0.14285714 0.50000000 0.41666667 T T T
0.14285714 0.42857143 0.50000000 T T T
0.21428571 0.50000000 0.50000000 T T T
0.21428571 0.42857143 0.58333333 T T T
0.14285714 0.50000000 0.58333333 T T T
0.14285714 0.42857143 0.66666667 T T T
0.21428571 0.50000000 0.66666667 T T T
0.21428571 0.42857143 0.75000000 T T T
0.14285714 0.50000000 0.75000000 T T T
0.14285714 0.42857143 0.83333333 T T T
0.21428571 0.50000000 0.83333333 T T T
0.21428571 0.42857143 0.91666667 T T T
0.14285714 0.50000000 0.91666667 T T T
0.14285714 0.57142857 0.00000000 T T T
0.21428571 0.64285714 0.00000000 T T T
0.21428571 0.57142857 0.08333333 T T T
0.14285714 0.64285714 0.08333333 T T T
0.14285714 0.57142857 0.16666667 T T T
0.21428571 0.64285714 0.16666667 T T T
0.21428571 0.57142857 0.25000000 T T T
0.14285714 0.64285714 0.25000000 T T T
0.14285714 0.57142857 0.33333333 T T T
0.21428571 0.64285714 0.33333333 T T T
0.21428571 0.57142857 0.41666667 T T T
0.14285714 0.64285714 0.41666667 T T T
0.21428571 0.64285714 0.50000000 T T T
0.21428571 0.57142857 0.58333333 T T T
0.14285714 0.64285714 0.58333333 T T T
0.14285714 0.57142857 0.66666667 T T T
0.21428571 0.64285714 0.66666667 T T T
0.21428571 0.57142857 0.75000000 T T T
0.14285714 0.64285714 0.75000000 T T T
0.21428571 0.64285714 0.83333333 T T T
0.21428571 0.57142857 0.91666667 T T T
0.14285714 0.64285714 0.91666667 T T T
0.14285714 0.71428571 0.00000000 T T T
0.21428571 0.78571429 0.00000000 T T T
0.21428571 0.71428571 0.08333333 T T T
0.14285714 0.71428571 0.16666667 T T T
0.21428571 0.78571429 0.16666667 T T T
0.21428571 0.71428571 0.25000000 T T T
0.14285714 0.78571429 0.25000000 T T T
0.14285714 0.71428571 0.33333333 T T T
0.21428571 0.78571429 0.33333333 T T T
0.21428571 0.71428571 0.41666667 T T T
0.14285714 0.71428571 0.50000000 T T T
0.21428571 0.78571429 0.50000000 T T T
0.21428571 0.71428571 0.58333333 T T T
0.14285714 0.78571429 0.58333333 T T T
0.14285714 0.71428571 0.66666667 T T T
0.21428571 0.78571429 0.66666667 T T T
0.21428571 0.71428571 0.75000000 T T T
0.14285714 0.78571429 0.75000000 T T T
0.14285714 0.71428571 0.83333333 T T T
0.21428571 0.78571429 0.83333333 T T T
0.21428571 0.71428571 0.91666667 T T T
0.14285714 0.78571429 0.91666667 T T T
0.14285714 0.85714286 0.00000000 T T T
0.21428571 0.85714286 0.08333333 T T T
0.14285714 0.85714286 0.16666667 T T T
0.21428571 0.92857143 0.16666667 T T T
0.21428571 0.85714286 0.25000000 T T T
0.14285714 0.92857143 0.25000000 T T T
0.14285714 0.85714286 0.33333333 T T T
0.21428571 0.92857143 0.33333333 T T T
0.21428571 0.85714286 0.41666667 T T T
0.14285714 0.92857143 0.41666667 T T T
0.21428571 0.92857143 0.50000000 T T T
0.21428571 0.85714286 0.58333333 T T T
0.14285714 0.92857143 0.58333333 T T T
0.14285714 0.85714286 0.66666667 T T T
0.21428571 0.92857143 0.66666667 T T T
0.21428571 0.85714286 0.75000000 T T T
0.14285714 0.92857143 0.75000000 T T T
0.14285714 0.85714286 0.83333333 T T T
0.21428571 0.92857143 0.83333333 T T T
0.21428571 0.85714286 0.91666667 T T T
0.28571429 0.00000000 0.00000000 T T T
0.35714286 0.07142857 0.00000000 T T T
0.35714286 0.00000000 0.08333333 T T T
0.28571429 0.07142857 0.08333333 T T T
0.28571429 0.00000000 0.16666667 T T T
0.35714286 0.07142857 0.16666667 T T T
0.35714286 0.00000000 0.25000000 T T T
0.28571429 0.07142857 0.25000000 T T T
0.28571429 0.00000000 0.33333333 T T T
0.35714286 0.07142857 0.33333333 T T T
0.35714286 0.00000000 0.41666667 T T T
0.28571429 0.07142857 0.41666667 T T T
0.28571429 0.00000000 0.50000000 T T T
0.35714286 0.07142857 0.50000000 T T T
0.35714286 0.00000000 0.58333333 T T T
0.28571429 0.07142857 0.58333333 T T T
0.28571429 0.00000000 0.66666667 T T T
0.35714286 0.07142857 0.66666667 T T T
0.28571429 0.07142857 0.75000000 T T T
0.28571429 0.00000000 0.83333333 T T T
0.35714286 0.07142857 0.83333333 T T T
0.35714286 0.00000000 0.91666667 T T T
0.28571429 0.07142857 0.91666667 T T T
0.28571429 0.14285714 0.00000000 T T T
0.35714286 0.21428571 0.00000000 T T T
0.35714286 0.14285714 0.08333333 T T T
0.28571429 0.21428571 0.08333333 T T T
0.28571429 0.14285714 0.16666667 T T T
0.35714286 0.21428571 0.16666667 T T T
0.35714286 0.14285714 0.25000000 T T T
0.28571429 0.21428571 0.25000000 T T T
0.28571429 0.14285714 0.33333333 T T T
0.35714286 0.21428571 0.33333333 T T T
0.35714286 0.14285714 0.41666667 T T T
0.28571429 0.21428571 0.41666667 T T T
0.28571429 0.14285714 0.50000000 T T T
0.35714286 0.14285714 0.58333333 T T T
0.28571429 0.21428571 0.58333333 T T T
0.28571429 0.14285714 0.66666667 T T T
0.35714286 0.21428571 0.66666667 T T T
0.35714286 0.14285714 0.75000000 T T T
0.28571429 0.21428571 0.75000000 T T T
0.28571429 0.14285714 0.83333333 T T T
0.35714286 0.21428571 0.83333333 T T T
0.35714286 0.14285714 0.91666667 T T T
0.28571429 0.21428571 0.91666667 T T T
0.28571429 0.28571429 0.00000000 T T T
0.35714286 0.35714286 0.00000000 T T T
0.35714286 0.28571429 0.08333333 T T T
0.28571429 0.35714286 0.08333333 T T T
0.28571429 0.28571429 0.16666667 T T T
0.35714286 0.35714286 0.16666667 T T T
0.35714286 0.28571429 0.25000000 T T T
0.28571429 0.35714286 0.25000000 T T T
0.28571429 0.28571429 0.33333333 T T T
0.35714286 0.35714286 0.33333333 T T T
0.35714286 0.28571429 0.41666667 T T T
0.28571429 0.35714286 0.41666667 T T T
0.28571429 0.28571429 0.50000000 T T T
0.35714286 0.35714286 0.50000000 T T T
0.28571429 0.28571429 0.66666667 T T T
0.35714286 0.35714286 0.66666667 T T T
0.35714286 0.28571429 0.75000000 T T T
0.28571429 0.35714286 0.75000000 T T T
0.28571429 0.28571429 0.83333333 T T T
0.35714286 0.35714286 0.83333333 T T T
0.35714286 0.28571429 0.91666667 T T T
0.28571429 0.42857143 0.00000000 T T T
0.35714286 0.50000000 0.00000000 T T T
0.35714286 0.42857143 0.08333333 T T T
0.28571429 0.50000000 0.08333333 T T T
0.28571429 0.42857143 0.16666667 T T T
0.35714286 0.50000000 0.16666667 T T T
0.35714286 0.42857143 0.25000000 T T T
0.28571429 0.50000000 0.25000000 T T T
0.28571429 0.42857143 0.33333333 T T T
0.35714286 0.50000000 0.33333333 T T T
0.35714286 0.42857143 0.41666667 T T T
0.28571429 0.50000000 0.41666667 T T T
0.28571429 0.42857143 0.50000000 T T T
0.35714286 0.50000000 0.50000000 T T T
0.28571429 0.50000000 0.58333333 T T T
0.28571429 0.42857143 0.66666667 T T T
0.35714286 0.50000000 0.66666667 T T T
0.28571429 0.50000000 0.75000000 T T T
0.28571429 0.42857143 0.83333333 T T T
0.35714286 0.50000000 0.83333333 T T T
0.28571429 0.50000000 0.91666667 T T T
0.28571429 0.57142857 0.00000000 T T T
0.35714286 0.64285714 0.00000000 T T T
0.28571429 0.64285714 0.08333333 T T T
0.28571429 0.57142857 0.16666667 T T T
0.35714286 0.64285714 0.16666667 T T T
0.35714286 0.57142857 0.25000000 T T T
0.28571429 0.64285714 0.25000000 T T T
0.28571429 0.57142857 0.33333333 T T T
0.35714286 0.57142857 0.41666667 T T T
0.28571429 0.57142857 0.50000000 T T T
0.35714286 0.64285714 0.50000000 T T T
0.35714286 0.57142857 0.58333333 T T T
0.28571429 0.64285714 0.58333333 T T T
0.28571429 0.57142857 0.66666667 T T T
0.35714286 0.64285714 0.66666667 T T T
0.35714286 0.57142857 0.75000000 T T T
0.28571429 0.64285714 0.75000000 T T T
0.35714286 0.64285714 0.83333333 T T T
0.35714286 0.57142857 0.91666667 T T T
0.28571429 0.64285714 0.91666667 T T T
0.28571429 0.71428571 0.00000000 T T T
0.35714286 0.71428571 0.08333333 T T T
0.28571429 0.78571429 0.08333333 T T T
0.35714286 0.78571429 0.16666667 T T T
0.35714286 0.71428571 0.25000000 T T T
0.28571429 0.78571429 0.25000000 T T T
0.28571429 0.71428571 0.33333333 T T T
0.35714286 0.78571429 0.33333333 T T T
0.35714286 0.71428571 0.41666667 T T T
0.28571429 0.71428571 0.50000000 T T T
0.35714286 0.78571429 0.50000000 T T T
0.35714286 0.71428571 0.58333333 T T T
0.28571429 0.78571429 0.58333333 T T T
0.28571429 0.71428571 0.66666667 T T T
0.35714286 0.78571429 0.66666667 T T T
0.35714286 0.71428571 0.75000000 T T T
0.28571429 0.78571429 0.75000000 T T T
0.28571429 0.71428571 0.83333333 T T T
0.35714286 0.78571429 0.83333333 T T T
0.35714286 0.71428571 0.91666667 T T T
0.28571429 0.78571429 0.91666667 T T T
0.28571429 0.85714286 0.00000000 T T T
0.35714286 0.92857143 0.00000000 T T T
0.35714286 0.85714286 0.08333333 T T T
0.28571429 0.92857143 0.08333333 T T T
0.28571429 0.85714286 0.16666667 T T T
0.35714286 0.92857143 0.16666667 T T T
0.35714286 0.85714286 0.25000000 T T T
0.28571429 0.92857143 0.25000000 T T T
0.28571429 0.85714286 0.33333333 T T T
0.35714286 0.92857143 0.33333333 T T T
0.35714286 0.85714286 0.41666667 T T T
0.28571429 0.92857143 0.41666667 T T T
0.28571429 0.85714286 0.50000000 T T T
0.35714286 0.92857143 0.50000000 T T T
0.35714286 0.85714286 0.58333333 T T T
0.28571429 0.85714286 0.66666667 T T T
0.35714286 0.92857143 0.66666667 T T T
0.35714286 0.85714286 0.75000000 T T T
0.28571429 0.92857143 0.75000000 T T T
0.35714286 0.92857143 0.83333333 T T T
0.35714286 0.85714286 0.91666667 T T T
0.28571429 0.92857143 0.91666667 T T T
0.42857143 0.00000000 0.00000000 T T T
0.50000000 0.07142857 0.00000000 T T T
0.50000000 0.00000000 0.08333333 T T T
0.42857143 0.07142857 0.08333333 T T T
0.42857143 0.00000000 0.16666667 T T T
0.50000000 0.07142857 0.16666667 T T T
0.50000000 0.00000000 0.25000000 T T T
0.42857143 0.07142857 0.25000000 T T T
0.42857143 0.00000000 0.33333333 T T T
0.50000000 0.07142857 0.33333333 T T T
0.50000000 0.00000000 0.41666667 T T T
0.42857143 0.07142857 0.41666667 T T T
0.42857143 0.00000000 0.50000000 T T T
0.50000000 0.07142857 0.50000000 T T T
0.50000000 0.00000000 0.58333333 T T T
0.42857143 0.07142857 0.58333333 T T T
0.42857143 0.00000000 0.66666667 T T T
0.50000000 0.00000000 0.75000000 T T T
0.42857143 0.00000000 0.83333333 T T T
0.50000000 0.07142857 0.83333333 T T T
0.42857143 0.07142857 0.91666667 T T T
0.50000000 0.21428571 0.00000000 T T T
0.50000000 0.14285714 0.08333333 T T T
0.42857143 0.21428571 0.08333333 T T T
0.42857143 0.14285714 0.16666667 T T T
0.50000000 0.21428571 0.16666667 T T T
0.50000000 0.14285714 0.25000000 T T T
0.42857143 0.21428571 0.25000000 T T T
0.42857143 0.14285714 0.33333333 T T T
0.50000000 0.21428571 0.33333333 T T T
0.50000000 0.14285714 0.41666667 T T T
0.42857143 0.14285714 0.50000000 T T T
0.50000000 0.21428571 0.50000000 T T T
0.50000000 0.14285714 0.58333333 T T T
0.42857143 0.21428571 0.58333333 T T T
0.42857143 0.14285714 0.66666667 T T T
0.50000000 0.21428571 0.66666667 T T T
0.50000000 0.14285714 0.75000000 T T T
0.42857143 0.21428571 0.75000000 T T T
0.50000000 0.21428571 0.83333333 T T T
0.50000000 0.14285714 0.91666667 T T T
0.42857143 0.21428571 0.91666667 T T T
0.42857143 0.28571429 0.00000000 T T T
0.50000000 0.35714286 0.00000000 T T T
0.50000000 0.28571429 0.08333333 T T T
0.42857143 0.35714286 0.08333333 T T T
0.42857143 0.28571429 0.16666667 T T T
0.50000000 0.35714286 0.16666667 T T T
0.42857143 0.35714286 0.25000000 T T T
0.50000000 0.35714286 0.33333333 T T T
0.50000000 0.28571429 0.41666667 T T T
0.42857143 0.35714286 0.41666667 T T T
0.42857143 0.28571429 0.50000000 T T T
0.50000000 0.35714286 0.50000000 T T T
0.42857143 0.35714286 0.58333333 T T T
0.42857143 0.28571429 0.66666667 T T T
0.50000000 0.28571429 0.75000000 T T T
0.42857143 0.35714286 0.75000000 T T T
0.42857143 0.28571429 0.83333333 T T T
0.50000000 0.35714286 0.83333333 T T T
0.50000000 0.28571429 0.91666667 T T T
0.42857143 0.35714286 0.91666667 T T T
0.42857143 0.42857143 0.00000000 T T T
0.50000000 0.50000000 0.00000000 T T T
0.50000000 0.42857143 0.08333333 T T T
0.42857143 0.50000000 0.08333333 T T T
0.42857143 0.42857143 0.16666667 T T T
0.50000000 0.50000000 0.16666667 T T T
0.50000000 0.42857143 0.25000000 T T T
0.50000000 0.50000000 0.33333333 T T T
0.50000000 0.42857143 0.41666667 T T T
0.42857143 0.50000000 0.41666667 T T T
0.50000000 0.50000000 0.50000000 T T T
0.50000000 0.42857143 0.58333333 T T T
0.42857143 0.50000000 0.58333333 T T T
0.42857143 0.42857143 0.66666667 T T T
0.50000000 0.50000000 0.66666667 T T T
0.50000000 0.42857143 0.75000000 T T T
0.42857143 0.50000000 0.75000000 T T T
0.42857143 0.42857143 0.83333333 T T T
0.50000000 0.50000000 0.83333333 T T T
0.50000000 0.42857143 0.91666667 T T T
0.42857143 0.57142857 0.00000000 T T T
0.50000000 0.64285714 0.00000000 T T T
0.50000000 0.57142857 0.08333333 T T T
0.42857143 0.64285714 0.08333333 T T T
0.42857143 0.57142857 0.16666667 T T T
0.50000000 0.64285714 0.16666667 T T T
0.50000000 0.57142857 0.25000000 T T T
0.42857143 0.64285714 0.25000000 T T T
0.42857143 0.57142857 0.33333333 T T T
0.50000000 0.64285714 0.33333333 T T T
0.50000000 0.57142857 0.41666667 T T T
0.42857143 0.64285714 0.41666667 T T T
0.42857143 0.57142857 0.50000000 T T T
0.50000000 0.57142857 0.58333333 T T T
0.42857143 0.64285714 0.58333333 T T T
0.42857143 0.57142857 0.66666667 T T T
0.50000000 0.64285714 0.66666667 T T T
0.42857143 0.64285714 0.75000000 T T T
0.42857143 0.57142857 0.83333333 T T T
0.50000000 0.64285714 0.83333333 T T T
0.50000000 0.57142857 0.91666667 T T T
0.42857143 0.64285714 0.91666667 T T T
0.42857143 0.71428571 0.00000000 T T T
0.50000000 0.78571429 0.00000000 T T T
0.50000000 0.71428571 0.08333333 T T T
0.42857143 0.78571429 0.08333333 T T T
0.42857143 0.71428571 0.16666667 T T T
0.50000000 0.78571429 0.16666667 T T T
0.50000000 0.71428571 0.25000000 T T T
0.42857143 0.78571429 0.25000000 T T T
0.42857143 0.71428571 0.33333333 T T T
0.50000000 0.78571429 0.33333333 T T T
0.50000000 0.71428571 0.41666667 T T T
0.42857143 0.78571429 0.41666667 T T T
0.42857143 0.71428571 0.50000000 T T T
0.50000000 0.78571429 0.50000000 T T T
0.50000000 0.71428571 0.58333333 T T T
0.42857143 0.78571429 0.58333333 T T T
0.42857143 0.71428571 0.66666667 T T T
0.50000000 0.78571429 0.66666667 T T T
0.50000000 0.71428571 0.75000000 T T T
0.42857143 0.78571429 0.75000000 T T T
0.42857143 0.71428571 0.83333333 T T T
0.50000000 0.78571429 0.83333333 T T T
0.50000000 0.71428571 0.91666667 T T T
0.42857143 0.78571429 0.91666667 T T T
0.42857143 0.85714286 0.00000000 T T T
0.50000000 0.92857143 0.00000000 T T T
0.50000000 0.85714286 0.08333333 T T T
0.42857143 0.92857143 0.08333333 T T T
0.42857143 0.85714286 0.16666667 T T T
0.50000000 0.92857143 0.16666667 T T T
0.50000000 0.85714286 0.25000000 T T T
0.42857143 0.92857143 0.25000000 T T T
0.42857143 0.85714286 0.33333333 T T T
0.42857143 0.92857143 0.41666667 T T T
0.42857143 0.85714286 0.50000000 T T T
0.50000000 0.92857143 0.50000000 T T T
0.50000000 0.85714286 0.58333333 T T T
0.42857143 0.92857143 0.58333333 T T T
0.42857143 0.85714286 0.66666667 T T T
0.50000000 0.92857143 0.66666667 T T T
0.42857143 0.92857143 0.75000000 T T T
0.50000000 0.92857143 0.83333333 T T T
0.50000000 0.85714286 0.91666667 T T T
0.42857143 0.92857143 0.91666667 T T T
0.57142857 0.00000000 0.00000000 T T T
0.64285714 0.07142857 0.00000000 T T T
0.57142857 0.07142857 0.08333333 T T T
0.57142857 0.00000000 0.16666667 T T T
0.64285714 0.07142857 0.16666667 T T T
0.64285714 0.00000000 0.25000000 T T T
0.57142857 0.07142857 0.25000000 T T T
0.57142857 0.00000000 0.33333333 T T T
0.64285714 0.07142857 0.33333333 T T T
0.64285714 0.00000000 0.41666667 T T T
0.57142857 0.07142857 0.41666667 T T T
0.57142857 0.00000000 0.50000000 T T T
0.64285714 0.07142857 0.50000000 T T T
0.64285714 0.00000000 0.58333333 T T T
0.57142857 0.07142857 0.58333333 T T T
0.64285714 0.07142857 0.66666667 T T T
0.64285714 0.00000000 0.75000000 T T T
0.57142857 0.00000000 0.83333333 T T T
0.64285714 0.07142857 0.83333333 T T T
0.64285714 0.00000000 0.91666667 T T T
0.57142857 0.07142857 0.91666667 T T T
0.57142857 0.14285714 0.00000000 T T T
0.64285714 0.21428571 0.00000000 T T T
0.64285714 0.14285714 0.08333333 T T T
0.57142857 0.21428571 0.08333333 T T T
0.57142857 0.14285714 0.16666667 T T T
0.64285714 0.21428571 0.16666667 T T T
0.64285714 0.14285714 0.25000000 T T T
0.57142857 0.21428571 0.25000000 T T T
0.57142857 0.14285714 0.33333333 T T T
0.64285714 0.21428571 0.33333333 T T T
0.57142857 0.14285714 0.50000000 T T T
0.64285714 0.21428571 0.50000000 T T T
0.64285714 0.14285714 0.58333333 T T T
0.57142857 0.21428571 0.58333333 T T T
0.57142857 0.14285714 0.66666667 T T T
0.64285714 0.21428571 0.66666667 T T T
0.64285714 0.14285714 0.75000000 T T T
0.57142857 0.21428571 0.75000000 T T T
0.57142857 0.14285714 0.83333333 T T T
0.64285714 0.21428571 0.83333333 T T T
0.64285714 0.14285714 0.91666667 T T T
0.57142857 0.21428571 0.91666667 T T T
0.57142857 0.28571429 0.00000000 T T T
0.64285714 0.35714286 0.00000000 T T T
0.64285714 0.28571429 0.08333333 T T T
0.57142857 0.35714286 0.08333333 T T T
0.57142857 0.28571429 0.16666667 T T T
0.64285714 0.35714286 0.16666667 T T T
0.64285714 0.28571429 0.25000000 T T T
0.57142857 0.35714286 0.25000000 T T T
0.57142857 0.28571429 0.33333333 T T T
0.64285714 0.35714286 0.33333333 T T T
0.64285714 0.28571429 0.41666667 T T T
0.57142857 0.35714286 0.41666667 T T T
0.57142857 0.28571429 0.50000000 T T T
0.64285714 0.35714286 0.50000000 T T T
0.64285714 0.28571429 0.58333333 T T T
0.57142857 0.35714286 0.58333333 T T T
0.57142857 0.28571429 0.66666667 T T T
0.64285714 0.35714286 0.66666667 T T T
0.64285714 0.28571429 0.75000000 T T T
0.57142857 0.35714286 0.75000000 T T T
0.57142857 0.28571429 0.83333333 T T T
0.64285714 0.35714286 0.83333333 T T T
0.64285714 0.28571429 0.91666667 T T T
0.57142857 0.35714286 0.91666667 T T T
0.57142857 0.42857143 0.00000000 T T T
0.64285714 0.50000000 0.00000000 T T T
0.64285714 0.42857143 0.08333333 T T T
0.57142857 0.50000000 0.08333333 T T T
0.57142857 0.42857143 0.16666667 T T T
0.57142857 0.50000000 0.25000000 T T T
0.64285714 0.50000000 0.33333333 T T T
0.64285714 0.42857143 0.41666667 T T T
0.57142857 0.50000000 0.41666667 T T T
0.57142857 0.42857143 0.50000000 T T T
0.64285714 0.50000000 0.50000000 T T T
0.64285714 0.42857143 0.58333333 T T T
0.57142857 0.50000000 0.58333333 T T T
0.57142857 0.42857143 0.66666667 T T T
0.64285714 0.50000000 0.66666667 T T T
0.64285714 0.42857143 0.75000000 T T T
0.64285714 0.50000000 0.83333333 T T T
0.64285714 0.42857143 0.91666667 T T T
0.57142857 0.50000000 0.91666667 T T T
0.64285714 0.64285714 0.00000000 T T T
0.64285714 0.57142857 0.08333333 T T T
0.57142857 0.64285714 0.08333333 T T T
0.64285714 0.57142857 0.25000000 T T T
0.57142857 0.64285714 0.25000000 T T T
0.57142857 0.57142857 0.33333333 T T T
0.64285714 0.64285714 0.33333333 T T T
0.64285714 0.57142857 0.41666667 T T T
0.57142857 0.57142857 0.50000000 T T T
0.64285714 0.64285714 0.50000000 T T T
0.64285714 0.57142857 0.58333333 T T T
0.57142857 0.64285714 0.58333333 T T T
0.57142857 0.57142857 0.66666667 T T T
0.64285714 0.57142857 0.75000000 T T T
0.57142857 0.64285714 0.75000000 T T T
0.57142857 0.57142857 0.83333333 T T T
0.64285714 0.64285714 0.83333333 T T T
0.64285714 0.57142857 0.91666667 T T T
0.57142857 0.64285714 0.91666667 T T T
0.57142857 0.71428571 0.00000000 T T T
0.64285714 0.78571429 0.00000000 T T T
0.64285714 0.71428571 0.08333333 T T T
0.57142857 0.78571429 0.08333333 T T T
0.57142857 0.71428571 0.16666667 T T T
0.64285714 0.78571429 0.16666667 T T T
0.64285714 0.71428571 0.25000000 T T T
0.57142857 0.78571429 0.25000000 T T T
0.57142857 0.71428571 0.33333333 T T T
0.64285714 0.78571429 0.33333333 T T T
0.64285714 0.71428571 0.41666667 T T T
0.57142857 0.78571429 0.41666667 T T T
0.57142857 0.71428571 0.50000000 T T T
0.64285714 0.78571429 0.50000000 T T T
0.64285714 0.71428571 0.58333333 T T T
0.57142857 0.78571429 0.58333333 T T T
0.57142857 0.71428571 0.66666667 T T T
0.64285714 0.78571429 0.66666667 T T T
0.64285714 0.71428571 0.75000000 T T T
0.57142857 0.78571429 0.75000000 T T T
0.57142857 0.71428571 0.83333333 T T T
0.64285714 0.78571429 0.83333333 T T T
0.64285714 0.71428571 0.91666667 T T T
0.57142857 0.78571429 0.91666667 T T T
0.57142857 0.85714286 0.00000000 T T T
0.64285714 0.92857143 0.00000000 T T T
0.64285714 0.85714286 0.08333333 T T T
0.57142857 0.85714286 0.16666667 T T T
0.64285714 0.85714286 0.25000000 T T T
0.57142857 0.92857143 0.25000000 T T T
0.57142857 0.85714286 0.33333333 T T T
0.64285714 0.85714286 0.41666667 T T T
0.57142857 0.92857143 0.41666667 T T T
0.57142857 0.85714286 0.50000000 T T T
0.64285714 0.92857143 0.50000000 T T T
0.64285714 0.85714286 0.58333333 T T T
0.57142857 0.92857143 0.58333333 T T T
0.57142857 0.85714286 0.66666667 T T T
0.64285714 0.92857143 0.66666667 T T T
0.64285714 0.85714286 0.75000000 T T T
0.57142857 0.92857143 0.75000000 T T T
0.57142857 0.85714286 0.83333333 T T T
0.64285714 0.92857143 0.83333333 T T T
0.64285714 0.85714286 0.91666667 T T T
0.57142857 0.92857143 0.91666667 T T T
0.71428571 0.00000000 0.00000000 T T T
0.78571429 0.07142857 0.00000000 T T T
0.78571429 0.00000000 0.08333333 T T T
0.71428571 0.07142857 0.08333333 T T T
0.71428571 0.00000000 0.16666667 T T T
0.78571429 0.07142857 0.16666667 T T T
0.78571429 0.00000000 0.25000000 T T T
0.71428571 0.07142857 0.25000000 T T T
0.71428571 0.00000000 0.33333333 T T T
0.78571429 0.07142857 0.33333333 T T T
0.78571429 0.00000000 0.41666667 T T T