H2O MD                                  
   1.00000000000000     
    12.4629706332852344    0.0958481050600517    0.4656706493820397
    -0.0000000000000656   12.3146567182688695   -0.3598934065693205
    -0.0000000000000685   -0.0000000000001624   12.4784993885916418
   O    H 
    64   128
Direct
  0.6539268297028560  0.1513576911761660  0.2057048299785776
  0.5264615366858666  0.5032676039710691  0.7244497398846974
  0.6215907240232449  0.1227168162233432  0.7636854212797579
  0.0496369547354803  0.8058889747476222  0.4586181207653533
  0.4138198150635838  0.5185786361737429  0.3966192592734112
  0.8306661543549921  0.1276097287540426  0.8161082492200668
  0.7072087086360880  0.2637906261634028  0.4025926148467208
  0.9379888801629968  1.0402086945766194  0.3558019784716753
  0.1845677031026225  0.4237195593736242  0.5420298533499311
  0.6407044887563335  0.7519258205296815  0.4218492005736940
  0.0773101441319095  0.7925437348711303  0.9447091598173913
  0.2560450878006018  0.0962082058532288  0.7758918334344883
  0.4949621905697600  0.9853750631390770  0.2958291877287600
 -0.0467351465270543  0.6519413616440430  0.3320740092799340
  0.0980782119431584  0.8011700511336225  0.1778994667647918
  0.0531074906537703  0.4909830958166532  0.9839648269617547
  0.4444188229493251  0.7055060098020679  0.0338509925557223
  0.0993465384444881  0.0684711549492824  0.6208050703194098
  0.5993690861583463 -0.0010001726266723  0.9508359524330161
  0.2516984801864144  0.0683109675430548  0.4434644270654203
  0.4309172583745314 -0.0165451527497833  0.5349728188882462
  0.7301801468756267  0.7570320088805242  0.0902770144660796
  0.2558637860046702 -0.0246064342902761  0.9759068463714842
  0.3146895592536206  0.5246607475864620  0.1159828658731284
  0.4343322552699576  0.8746211079375774  0.8965946503764241
  0.3928771861092520  0.7330030769227919  0.4565413317024027
  0.2254718061729744  0.2779841543674247  0.3570139494687752
  0.8331292030258277  0.5696127642611707  0.5042600631692391
  0.6238997449072381  0.4597424937815339  0.2935174635470867
  0.9040521945254893  0.9025151341337084  0.8611099108227040
  0.1055136849027239  0.5276056851425025  0.1903682202588327
  0.7508773722172971  0.9707795397936769  0.4503819114082619
  0.7656717551984632  0.5891854197225492  0.1946293465859444
  0.7970377760118602  0.9473808273610416  0.0603234183295372
  0.0474849471704856  0.3805943601415412  0.7254909992596029
 -0.0027160816630963  0.9717564795010959  0.1388009250477181
  0.4585384912863956  0.2913783020288175  0.7770973325896029
  0.3984061685463087  0.3876350769815751  0.5570051003103434
  0.2276383577008461  0.7403768882753650  0.7604874257031781
  0.8087062089801720  0.7365234131805778  0.7497319075297261
  0.5007800360838965  0.4270480958392034  0.1239187288411279
  0.9009667397118386  0.9107454836330242  0.6019587485907917
  0.6080523163554107  0.1055103873776867  0.5337912128014228
  0.5312327920951584  0.7894219642211623  0.2184832340141605
  0.5482867913916840  0.5216447451735561  0.9405406131180355
  0.9368923968547562  0.2635595649709139  0.4035733030913481
  0.8158728952714305  0.2153872428964082  1.0391107242676367
  0.1291794618535753  0.6368258288307418  0.5953444609566672
 -0.0554095974451145  0.5659599546684224  0.6920425280307845
  0.2287551384193354  0.8445494902986097  0.3468896991880292
  0.0596664273716790  0.3168078952325392  0.2445987133966569
  0.3102830353955013  0.0418913711941729  0.1951933187594212
  0.7344466547664408  0.6084724956009135  0.9021995184035770
  0.4197206692362761  0.8583949099083212  0.6887693090628179
  0.8363475373006792  0.4301759201268791 -0.0060328992101838
  0.7278205220990021  0.4365785586871931  0.6397463003259569
  0.2954738137497769  0.3916198129247100  0.9405521652654197
  0.5830350021389539  0.7242856134261988  0.6595141763412029
  0.1221132525023217  0.2630186251605899  0.8879247691253295
  0.4413317585923578  0.2324730382161837  0.4008466849633537
  0.0579097495300197  0.1758922448951142  0.0634429996251896
  0.3157277025856746  0.5565140064344229  0.8172448203732537
  0.4803930834998336  0.1964825351801773  0.0868699829397102
  0.9041767467628959  0.2311291179697261  0.6394764030465686
  0.6404872133042206  0.0772473864407007  0.2365396394904087
  0.5377823393715747  0.5149360769215428  0.8031024021419060
  0.5610500186527835  0.1760825463498213  0.7796932276174161
  0.0170040376697816  0.8630256328655351  0.5104613027543768
  0.4039389014716750  0.4650266860502884  0.4597115856536917
  0.8272732399831957  0.1520953983328054  0.8920695898480820
  0.6822679682911894  0.3381571517621040  0.3961423277988405
 -0.0537306311414869  0.1175244822005764  0.3710541733095248
  0.2660111300896592  0.4110702193668628  0.5577588350815096
  0.6019016052934802  0.7455061565260195  0.4898381168987468
  0.1328022006675079  0.7723675874523580  0.8888560126037960
  0.2338580340549555  0.0419336080982141  0.8333636399845289
  0.4975634511245915 -0.0260810154127959  0.3736626168636401
  0.9814030390153923  0.7240198214980960  0.3661373765669226
  0.1597877687417376  0.8018481687586748  0.2270977521865727
  0.0718288545710829  0.4754166350484501  0.9086803564396316
  0.4740258470494274  0.7474612883289212  0.0950448820226431
  0.0452335136337536  0.0112675118484570  0.6123316458426161
  0.6714256744310377  0.9840644645426030 -0.0234483308178517
  0.1996853582158984  0.0799775416936264  0.5035654369130088
  0.3666594866536307  0.0204598191653650  0.5105314135173455
  0.7350494695260346  0.6914098648521382  0.1421764169751554
  0.1909544227537161  0.9300883379912855  0.9840203099521826
  0.3471778068505709  0.5998240308638313  0.1159307615267372
  0.4306722436480431  0.8686880671578451  0.8174375153254948
  0.3907785487580462  0.7364979911867072  0.5341701864577699
  0.2113734803400423  0.3353608663213071  0.4094562101759073
  0.8747951291947883  0.5800102986619918  0.5703408773554809
  0.5823263009719094  0.4397399705760641  0.2210512329096161
  0.8690587284975367  0.9257616912178337  0.9326539090790582
  0.0661798819736137  0.5932248968409111  0.2151064650267582
  0.7156836227684237  0.8955472119337298  0.4442533092894473
  0.8238607500323896  0.6159108544885527  0.2459152316343952
  0.8718433286390981  0.9616878587392277  0.0952752909019353
  0.0605815819485030  0.3343794573321445  0.7904638239588860
  0.0446418484501173  0.9048415671879084  0.1447363555971752
  0.4066437504191484  0.3120494587682171  0.8363598000225935
  0.4159928633218614  0.3179791949092827  0.5134587608423544
  0.2540814068755949  0.6692750583225329  0.7869868048879328
  0.8604392204884082  0.6789175546546212  0.7264993048868145
  0.4268901082333731  0.4577868588626224  0.1301227752725145
  0.8701585756365627  0.8658074375361632  0.6586761443252001
  0.6077492035474306  0.1141188429072316  0.6154714569489349
  0.5156613576670810  0.8662170017750133  0.2384508676260576
  0.5043940141618402  0.5872139262766388  0.9628385144452277
  0.9659036621069693  0.2698011321102241  0.4712280041803694
  0.7646214175170757  0.1881451329713883  0.0947877713907818
  0.0953820517497668  0.6835478951351610  0.5430554932966036
 -0.0426078020435786  0.4913754218866190  0.7129759981261578
  0.2139786145089047  0.9198618956705120  0.3605446134825697
  0.0637087787375905  0.3951253352274858  0.2420342048857279
  0.2913924582250557  0.0149571634399843  0.1219773199730788
  0.7697039243279293  0.6597382799362942  0.8458905832397600
  0.4232201326533190  0.9159699235960512  0.6295475947694813
  0.8224266910286719  0.3546508912900620  0.0217936667297166
  0.7594104588956450  0.4727512890446676  0.5778368612621644
  0.2980703588890027  0.4388326011308099  1.0066535107115067
  0.5818171807849356  0.6478871262467131  0.6774775794448067
  0.1702934623084693  0.2083959604218157  0.8494840586401806
  0.3712517700653939  0.2468413387776924  0.3690424653854303
  0.0617960425748866  0.2297982196160604  0.1310806409596526
  0.2980368790935515  0.4887275231059092  0.8601845836303628
  0.4672297051336315  0.2739264147941350  0.0806461986633936
  0.8782436756181345  0.1893973473188010  0.7024206430695787
  0.5837816752182399  0.1714339638939317  0.1720620898788471
  0.6006999605985273  0.4890812073258658  0.6936654431090711
  0.6138005040405272  0.0596590671911216  0.8038589642381079
  0.1157919254381944  0.8280439972826604  0.4149250812585147
  0.3748016859808073  0.4834486267488419  0.3427074169557235
  0.7540243148488267  0.1353667960986362  0.7991627903171049
  0.6980645207488968  0.2225027331148234  0.3305610004071515
  0.8667785428065529  1.0202751365695903  0.3809347696630308
  0.1788734537559452  0.5065478278232671  0.5537970924905169
  0.5820708799467276  0.7463081903941441  0.3704077712387763
  0.0142490866590502  0.8218571708646389  0.9076625259312244
  0.2126567988745169  0.0787609926813949  0.7110504418203253
  0.4213784729632457  1.0088800176427208  0.2822187780379759
 -0.0885218839394002  0.6161822115811636  0.3881949714825430
  0.1228804391252988  0.7665398708572685  1.1141049508908121
 -0.0262465464372882  0.4773034644623509  0.9874508223678452
  0.4501310460644634  0.7520766065425485  0.9697522289274202
  0.0627181672809418  0.1350924353352262  0.6133624834015746
  0.5703619023844585  0.0525139900735658  0.0045083751907230
  0.2457001712659677  0.1322438077187829  0.4026912866870681
  0.4908510069977586  0.0370226471020108  0.5351781362153392
  0.7223693937437825  0.7170659822153210  0.0234574711569460
  0.3158753751003656  0.9247848285882275  0.9508178528210492
  0.2420161765233794  0.5321260952608858  0.1513395285369235
  0.5015775090207144  0.9121309504828871  0.9035336926243598
  0.3947608510647276  0.6556337764212167  0.4299297914403680
  0.1685101108759114  0.2849547795589407  0.3098439933322163
  0.7874540538055492  0.6334937364893065  0.5050269122770491
  0.5664022293651072  0.4925512402569794  0.3378680057765576
  0.9121805117920369  0.9725794878112470  0.8278868067746999
  0.0851408100890152  0.5206593587180627  0.1133657512579563
  0.6954505047306971  1.0122805025757822  0.4936764340546387
  0.7237418996386442  0.5409316169101140  0.2444447471471607
  0.7830950708029287  0.8698985621511524  0.0810275838044681
  0.1128292333163318  0.3930103250162559  0.6776994508787196
 -0.0252278727997319  0.9900475028387649  0.2169135761031047
  0.4958397784819903  0.3613018044163007  0.7697590828686620
  0.4434507292211421  0.3831704290362334  0.6204619956429607
  0.2914066124478568  0.7881756771091303  0.7474253849012870
  0.8391949571238955  0.7893739874509971  0.7972794411625624
  0.5279075510727024  0.4559570266531254  0.0534134770880776
  0.8472854761678510  0.9244268252044894  0.5445658901349951
  0.6454578653674710  0.1676185627325397  0.4978650328697787
  0.6031327789755457  0.7827163258871762  0.1829282346338538
  0.6271111715244517  0.5497562508694737  0.9372160884950549
  0.8588270710948829  0.2628272841293186  0.4190461019235842
  0.8800012364065476  0.1814043954013530  0.0680000635037551
  0.1689100681792635  0.6780475893289091  0.6507930906395338
  0.0208760560915257  0.5809092117744022  0.6673693484335281
  0.2782859179217201  0.8153649518546400  0.4010490221051641
  1.0026145944914038  0.3009793126138603  0.3061195667305361
  0.2400914713829781  0.0674536117677054  0.2187417854244666
  0.7880000754447118  0.5470158222013741 -0.0821698784349183
  0.4840782618732816  0.8092495654048359  0.6747158769514450
  0.8207327078359891  0.4764730877222755  0.0579516267553540
  0.7632085784882863  0.3643798049155955  0.6452680089821339
  0.2398999886508794  0.3379539808570620  0.9440538530205811
  0.6546753419140667  0.7534391590636211  0.6782507859225508
  0.0820140158901929  0.2264384473075245  0.9438127860385764
  0.4969041575612451  0.2385019071591850  0.3442519483947482
  0.0586311955876286  0.1041459219174087  0.0977977968707557
  0.3765389034166465  0.5433421186309594  0.7664050310368170
  0.4145741668857754  0.1630496797039469  0.1127130601350062
 -0.0450031685682141  0.2874701526346136  0.6732221437470194
Lattice velocities and vectors
           1
  0.97535569E-02  0.35737778E-03 -0.82617434E-02
 -0.84574223E-02 -0.59985344E-02  0.88715552E-02
 -0.67104662E-02  0.87680235E-03 -0.27558019E-02
  0.12473037E+02  0.87418059E-01  0.45071281E+00
 -0.62339339E-13  0.12308680E+02 -0.35016116E+00
 -0.71191273E-13 -0.15547792E-12  0.12475742E+02
 
 -0.25053728E-02  0.34625988E-02 -0.41836759E-02
  0.28401221E-02 -0.33978064E-02  0.42446644E-02
  0.90386713E-03 -0.42651145E-02  0.16441061E-02
 -0.18196198E-02 -0.61575513E-02 -0.64072840E-02
  0.15803869E-02  0.22412185E-02  0.36827850E-02
 -0.70806445E-03 -0.18348131E-02  0.66403759E-02
 -0.21016793E-02 -0.37675397E-03  0.25861779E-02
  0.22406738E-02  0.51268398E-02 -0.38067796E-02
 -0.52143242E-02 -0.32170973E-03  0.17172418E-02
  0.60410471E-02 -0.53083616E-02  0.60586757E-02
 -0.34313348E-02 -0.14022038E-02 -0.25679572E-02
 -0.46376154E-02  0.28320320E-02 -0.19290302E-02
 -0.87067944E-03  0.76102075E-03  0.10216804E-02
  0.29584929E-03 -0.42179955E-02  0.38363215E-03
  0.40432780E-02  0.33130011E-02  0.63646442E-02
 -0.39098526E-02  0.19884392E-02  0.12485231E-02
 -0.18594081E-02  0.24210446E-02  0.86492961E-02
  0.17557174E-02  0.42037130E-02 -0.31590571E-03
  0.72918849E-02  0.11922470E-02 -0.39839678E-02
  0.11266589E-02 -0.34743142E-02  0.41558511E-02
  0.55378909E-02 -0.26417096E-02 -0.10311939E-02
 -0.15670065E-02  0.48147875E-02  0.36112874E-04
  0.18957974E-02  0.30338567E-03  0.36507446E-02
 -0.97487431E-02 -0.31792711E-02 -0.64192814E-03
 -0.34907973E-04 -0.53566015E-02  0.53633990E-02
  0.85402274E-03  0.27596538E-02 -0.21448375E-02
 -0.33973053E-03 -0.90526315E-02  0.19645981E-02
  0.35816751E-02  0.77995697E-02 -0.76293257E-02
  0.66856084E-02  0.24421733E-02 -0.22585781E-02
  0.20387550E-02  0.48763728E-02  0.38400405E-02
  0.41053607E-02 -0.56148494E-02  0.39142931E-02
 -0.19756183E-02 -0.51134988E-02  0.82688544E-03
 -0.21977953E-02 -0.79430289E-03 -0.18346858E-02
 -0.47814269E-03  0.18967134E-02 -0.13122883E-02
  0.61412891E-02  0.25570093E-02  0.15748778E-02
  0.10645628E-02  0.12229083E-02 -0.79767690E-03
 -0.46068415E-02  0.58756595E-02  0.60428965E-03
  0.65089684E-02 -0.30982070E-02  0.61902506E-02
 -0.66030476E-03 -0.90204206E-03  0.40517018E-02
  0.38280895E-02  0.12735322E-02  0.52591268E-02
  0.11776094E-02  0.46133233E-02  0.23063495E-02
  0.52513213E-03  0.88048427E-03  0.22703903E-02
  0.61024458E-02  0.57247676E-02 -0.15144606E-02
 -0.11822525E-02  0.52013332E-02 -0.25424653E-02
 -0.21188973E-02  0.65974110E-02  0.41439582E-02
  0.30434450E-03  0.23611506E-02 -0.11236437E-02
 -0.61734963E-03  0.49674015E-02  0.61966048E-02
  0.31566055E-02 -0.21395392E-02 -0.24907605E-02
  0.16225042E-02 -0.16755879E-02  0.66264662E-02
  0.94317666E-03  0.60609657E-02  0.87573152E-03
 -0.50970037E-02  0.22539776E-02 -0.76007081E-03
  0.40789025E-02  0.55510306E-02 -0.77620015E-02
  0.38624239E-02 -0.35171415E-03 -0.10312651E-02
  0.73031434E-02  0.12795964E-02  0.16199439E-02
  0.19713524E-03 -0.55435550E-03 -0.44204818E-02
  0.17243533E-02 -0.42746111E-02  0.28428519E-02
  0.12359371E-02  0.36144511E-02 -0.28945230E-02
  0.34938309E-02  0.60408456E-02  0.34954516E-02
  0.88020173E-02  0.12069912E-02  0.40268526E-02
  0.34867372E-02 -0.99972389E-03  0.61820044E-02
  0.30977830E-02 -0.37064207E-02  0.43979557E-02
  0.10852620E-02  0.66031111E-02 -0.38621723E-02
  0.18721896E-02  0.11229826E-02  0.11940275E-02
 -0.18289183E-02 -0.14552066E-02 -0.14486670E-02
 -0.15833969E-01 -0.33954730E-01 -0.97316732E-02
 -0.20688811E-01 -0.19868987E-01  0.45110870E-02
  0.78838722E-02 -0.94429745E-04 -0.31190258E-02
 -0.25395685E-01  0.84628446E-02 -0.13178275E-01
  0.16958309E-02 -0.29197390E-01 -0.13188814E-01
  0.83060106E-02  0.37696106E-02  0.16787715E-01
  0.31042109E-01 -0.21168507E-01 -0.13822824E-02
 -0.97420251E-03 -0.14490251E-02 -0.90151163E-02
 -0.98577873E-02 -0.30549378E-02 -0.46105145E-02
 -0.77068528E-02 -0.89969669E-02  0.37662430E-01
 -0.14256501E-01  0.21294964E-02 -0.20765232E-01
  0.14912632E-01  0.10398731E-01 -0.22469345E-01
 -0.29627070E-01 -0.58122020E-02 -0.25743912E-01
 -0.68380573E-02  0.22618477E-01 -0.84132770E-02
 -0.24313391E-02  0.81341930E-02 -0.84551550E-02
  0.43457467E-02  0.51785312E-02 -0.33226519E-01
 -0.19888348E-01 -0.85045623E-02  0.16805003E-01
  0.18480528E-01 -0.15948454E-02  0.77776926E-02
  0.73344291E-02 -0.99812368E-02 -0.26610508E-01
  0.25709224E-01 -0.33694728E-01 -0.10646711E-01
  0.16879481E-01  0.95576171E-02  0.17117739E-01
 -0.78318825E-02  0.18774828E-01 -0.22508487E-01
  0.27914154E-01 -0.62290699E-02  0.91802470E-02
  0.53291591E-02 -0.52195161E-01  0.60515266E-02
 -0.12886176E-01  0.25265799E-01 -0.18702611E-01
 -0.25834527E-01  0.92530518E-02 -0.82918615E-02
 -0.96348675E-02  0.11274459E-01  0.42151963E-01
  0.35911247E-02 -0.18223110E-02  0.98653923E-02
  0.33507023E-02 -0.79993815E-02  0.51277780E-02
 -0.10372902E-01 -0.21720115E-02 -0.19162324E-01
 -0.13206677E-01  0.49956132E-02  0.55244004E-02
  0.21631785E-01 -0.23675761E-01 -0.11021943E-01
  0.18844756E-01  0.10405997E-02  0.25240273E-02
 -0.82479056E-02 -0.24073141E-01 -0.17956909E-01
  0.67477436E-02  0.20869286E-01  0.22465292E-02
 -0.65121710E-02  0.13938954E-01  0.10030770E-02
 -0.21984847E-01  0.71184469E-02  0.39080036E-01
 -0.10915679E-01  0.11449259E-01 -0.69961199E-02
  0.83450284E-03 -0.37232991E-01  0.71897460E-02
  0.22311680E-01 -0.10348284E-01 -0.71992655E-02
  0.16396931E-01 -0.18667023E-01 -0.77045306E-02
  0.13364743E-01 -0.12711319E-01 -0.54467922E-02
  0.43176616E-02  0.10069308E-01  0.18018653E-01
  0.19900575E-01  0.63800589E-02 -0.28738765E-02
 -0.11534314E-02 -0.76920577E-02  0.35870708E-01
 -0.28507840E-02  0.13547197E-01  0.31597607E-01
 -0.10580359E-01  0.48731536E-02  0.18051201E-01
  0.62161694E-02 -0.56184230E-02  0.18357342E-01
  0.28540782E-01 -0.14635376E-01 -0.81558946E-02
  0.33268482E-01  0.26966495E-01  0.19367604E-02
 -0.64219202E-02  0.26037422E-02  0.22794242E-01
  0.19452795E-01  0.77328150E-02  0.58959979E-03
  0.33942371E-02 -0.71660937E-02  0.26718862E-01
  0.28374337E-01  0.82976075E-02 -0.70033156E-02
 -0.28750392E-01  0.78470016E-02 -0.19094875E-01
  0.15912658E-01 -0.14042657E-01 -0.15163327E-01
  0.10305007E-01 -0.60649682E-04  0.16286248E-01
  0.67794883E-02 -0.42640928E-02  0.25305432E-01
 -0.11146989E-01 -0.98140036E-02  0.99200941E-02
 -0.92225168E-02 -0.28863190E-01  0.14209195E-01
 -0.12083570E-01 -0.84973922E-02 -0.26415626E-01
  0.24382554E-02  0.25149134E-01 -0.17735165E-01
 -0.11725938E-02  0.16149844E-01  0.14088576E-01
 -0.92663126E-02  0.14425135E-02 -0.70939218E-03
 -0.14020318E-01  0.63343353E-02  0.27573082E-01
 -0.18209581E-01  0.34591791E-01  0.49360396E-02
 -0.90885972E-02 -0.10441148E-02  0.30583802E-01
 -0.10959917E-01  0.11366680E-01  0.54896156E-02
  0.49164586E-02 -0.14902397E-01 -0.18290828E-02
  0.19770570E-01  0.10658362E-01 -0.65785249E-02
  0.24080200E-01  0.14586632E-01  0.22129729E-01
  0.57092239E-02  0.55779609E-02  0.29510520E-03
  0.18291651E-02 -0.51107099E-01 -0.11591855E-01
 -0.32734074E-02 -0.11525356E-01  0.80297051E-02
 -0.16194973E-01  0.62322688E-02  0.36644371E-01
  0.15165443E-01  0.11717316E-02 -0.19148479E-01
 -0.30473078E-01  0.87236804E-04  0.12600130E-01
  0.12832643E-01 -0.50489394E-02  0.37550444E-02
 -0.98970184E-02 -0.27258991E-01  0.24302061E-01
 -0.17720012E-01  0.45472136E-02 -0.14778767E-02
 -0.70306362E-02 -0.28803267E-02 -0.21578770E-01
  0.12240306E-01  0.12161107E-01 -0.11966543E-01
 -0.16931794E-01  0.11847709E-01 -0.19844697E-01
 -0.37743482E-02  0.12068172E-01  0.15617305E-01
  0.16583455E-01 -0.11631155E-01 -0.12311613E-01
  0.15811150E-02 -0.19487688E-01 -0.15277541E-01
 -0.32556646E-02 -0.19712293E-01  0.44496945E-02
 -0.69520538E-02  0.44269514E-02  0.33945253E-01
  0.14852664E-01 -0.31494421E-01  0.16676839E-01
  0.13329912E-02 -0.88555753E-02  0.40802440E-03
 -0.12492038E-01  0.11359432E-01  0.67287813E-02
  0.23023918E-01  0.12327594E-01  0.11391979E-01
 -0.31392792E-02 -0.72955784E-02  0.18722490E-02
  0.34638979E-02  0.79659617E-02  0.11772223E-01
  0.17053396E-01 -0.21152870E-01 -0.14228156E-01
  0.33518582E-01 -0.67465770E-02 -0.25673083E-02
 -0.10938358E-01  0.52465399E-03 -0.40044235E-03
  0.24601486E-01  0.13300978E-02  0.20653734E-01
  0.12877815E-01 -0.29934367E-01  0.40430769E-02
  0.31342717E-03  0.57753308E-02  0.77640986E-02
  0.34115126E-02  0.82412146E-02  0.21424497E-01
 -0.87677524E-02  0.29638861E-01  0.22461611E-01
 -0.47467209E-02  0.14982338E-02 -0.58048788E-02
  0.25347258E-01 -0.32345749E-02 -0.48860451E-02
 -0.28939147E-02  0.15682017E-01  0.16106195E-01
 -0.10374265E-01  0.13493031E-01  0.30670925E-01
  0.62773029E-02  0.20014678E-01 -0.43482129E-02
 -0.13487520E-02  0.16195709E-01  0.76370335E-02
 -0.11885812E-01  0.83508730E-02 -0.68718423E-02
  0.40012749E-02 -0.32685833E-01  0.53437364E-02
 -0.36405180E-02  0.10796456E-01  0.29593412E-02
  0.10990592E-01 -0.15421670E-01  0.82367686E-02
  0.18868605E-02  0.16156114E-02  0.97495835E-03
 -0.13881349E-01 -0.65334910E-02 -0.26391048E-01
  0.86511393E-02  0.55821345E-02 -0.86401714E-02
 -0.30316650E-02 -0.10502621E-01  0.13294780E-01
  0.13485331E-01 -0.22606729E-01  0.32691022E-01
 -0.23239776E-01  0.18794222E-01 -0.29601095E-02
  0.22718181E-01 -0.10868397E-01  0.82432225E-02
 -0.17879189E-01 -0.44140449E-02 -0.29886848E-01
 -0.64078873E-02 -0.39297605E-02 -0.12256750E-01
  0.26176425E-01 -0.19468856E-02 -0.92137414E-02
  0.11050576E-02  0.17836702E-01  0.73003594E-02
  0.18985994E-01  0.63788913E-02  0.11745912E-01
  0.17202698E-01  0.21940430E-01 -0.51654329E-02
 -0.43121183E-02 -0.11828728E-01  0.18782928E-02
  0.11671384E-01 -0.24981896E-01  0.54218797E-02
  0.20346146E-01  0.18911370E-01  0.16955282E-01
 
           1
   1.00000000000000     
  0.10000000E+01  0.00000000E+00  0.00000000E+00  0.00000000E+00
  0.65372597E+00  0.15164043E+00  0.20538468E+00
  0.52668924E+00  0.50298994E+00  0.72477395E+00
  0.62166319E+00  0.12236979E+00  0.76380485E+00
  0.49491070E-01  0.80538975E+00  0.45809580E+00
  0.41394652E+00  0.51875982E+00  0.39691496E+00
  0.83060939E+00  0.12746107E+00  0.81663839E+00
  0.70704021E+00  0.26376121E+00  0.40280517E+00
  0.93816852E+00  0.40623941E-01  0.35550201E+00
  0.18414966E+00  0.42369639E+00  0.54218195E+00
  0.64118882E+00  0.75149111E+00  0.42230514E+00
  0.77035044E-01  0.79243177E+00  0.94451012E+00
  0.25567328E+00  0.96440931E-01  0.77575718E+00
  0.49489239E+00  0.98543739E+00  0.29591535E+00
  0.95328857E+00  0.65159851E+00  0.33209428E+00
  0.98402373E-01  0.80143691E+00  0.17840541E+00
  0.52794026E-01  0.49114687E+00  0.98408082E+00
  0.44426975E+00  0.70570376E+00  0.34555218E-01
  0.99487299E-01  0.68811680E-01  0.62078422E+00
  0.59995370E+00  0.99909254E+00  0.95049810E+00
  0.25178881E+00  0.68028061E-01  0.44378634E+00
  0.43136125E+00  0.98323707E+00  0.53486801E+00
  0.73005452E+00  0.75742407E+00  0.90295452E-01
  0.25601578E+00  0.97541713E+00  0.97619464E+00
  0.31390797E+00  0.52440800E+00  0.11595255E+00
  0.43432946E+00  0.87418594E+00  0.89701244E+00
  0.39294566E+00  0.73322679E+00  0.45637322E+00
  0.22544457E+00  0.27724888E+00  0.35715177E+00
  0.83341636E+00  0.57024439E+00  0.50365588E+00
  0.62443575E+00  0.45993710E+00  0.29332252E+00
  0.90421565E+00  0.90291015E+00  0.86142289E+00
  0.10584282E+00  0.52714718E+00  0.19065721E+00
  0.75071898E+00  0.97036523E+00  0.45044228E+00
  0.76549555E+00  0.58912214E+00  0.19448688E+00
  0.79699944E+00  0.94753520E+00  0.60223949E-01
  0.47977312E-01  0.38079860E+00  0.72560518E+00
  0.99736927E+00  0.97185523E+00  0.13873667E+00
  0.45816915E+00  0.29185828E+00  0.77717258E+00
  0.39892801E+00  0.38737966E+00  0.55747526E+00
  0.22758542E+00  0.74030398E+00  0.76081206E+00
  0.80901312E+00  0.73662470E+00  0.75014521E+00
  0.50087445E+00  0.42742223E+00  0.12411069E+00
  0.90100884E+00  0.91081672E+00  0.60214121E+00
  0.60854157E+00  0.10597201E+00  0.53366510E+00
  0.53113801E+00  0.78984521E+00  0.21829475E+00
  0.54811691E+00  0.52218195E+00  0.94089399E+00
  0.93691680E+00  0.26375122E+00  0.40348773E+00
  0.81582340E+00  0.21579116E+00  0.39620542E-01
  0.12943254E+00  0.63665021E+00  0.59513074E+00
  0.94472048E+00  0.56582290E+00  0.69256513E+00
  0.22883076E+00  0.84504137E+00  0.34697097E+00
  0.59257786E-01  0.31699392E+00  0.24455777E+00
  0.31061005E+00  0.42340034E-01  0.19457193E+00
  0.73475632E+00  0.60844172E+00  0.90210481E+00
  0.42030618E+00  0.85849471E+00  0.68888080E+00
  0.83636334E+00  0.43013077E+00  0.99361094E+00
  0.72795877E+00  0.43623029E+00  0.63995940E+00
  0.29557290E+00  0.39191276E+00  0.94032480E+00
  0.58331511E+00  0.72477440E+00  0.65979796E+00
  0.12281894E+00  0.26311167E+00  0.88822466E+00
  0.44161130E+00  0.23238983E+00  0.40132977E+00
  0.58158108E-01  0.17558936E+00  0.63778047E-01
  0.31581471E+00  0.55704985E+00  0.81694714E+00
  0.48054318E+00  0.19657270E+00  0.86962799E-01
  0.90403012E+00  0.23101193E+00  0.63936229E+00
  0.63921776E+00  0.74497802E-01  0.23572828E+00
  0.53612366E+00  0.51333363E+00  0.80347894E+00
  0.56168209E+00  0.17607039E+00  0.77942004E+00
  0.14967991E-01  0.86372764E+00  0.50949825E+00
  0.40407486E+00  0.46265362E+00  0.45858291E+00
  0.82793916E+00  0.15239693E+00  0.89339962E+00
  0.68475671E+00  0.33641967E+00  0.39589285E+00
  0.94619126E+00  0.11740731E+00  0.37033109E+00
  0.26522080E+00  0.41082764E+00  0.55741102E+00
  0.60128372E+00  0.74477960E+00  0.49285890E+00
  0.13165922E+00  0.77254871E+00  0.88723794E+00
  0.23505362E+00  0.42769946E-01  0.83154288E+00
  0.49518816E+00  0.97346365E+00  0.37167213E+00
  0.98085481E+00  0.72586132E+00  0.36553450E+00
  0.15959284E+00  0.80251040E+00  0.22644565E+00
  0.72177266E-01  0.47583488E+00  0.90601622E+00
  0.47243134E+00  0.74678167E+00  0.96430426E-01
  0.46715152E-01  0.11127418E-01  0.61289761E+00
  0.67201370E+00  0.98324938E+00  0.97437457E+00
  0.20174654E+00  0.77225426E-01  0.50256033E+00
  0.36801276E+00  0.21226702E-01  0.51187613E+00
  0.73442156E+00  0.69293966E+00  0.14043786E+00
  0.19319238E+00  0.92956637E+00  0.98466066E+00
  0.34760506E+00  0.59558048E+00  0.11628128E+00
  0.42963912E+00  0.87074809E+00  0.81603354E+00
  0.38870732E+00  0.73726445E+00  0.53360189E+00
  0.21060102E+00  0.33628233E+00  0.41288869E+00
  0.87508304E+00  0.57986020E+00  0.57111703E+00
  0.58259494E+00  0.43908817E+00  0.22143425E+00
  0.86822710E+00  0.92559114E+00  0.93114320E+00
  0.65121064E-01  0.59363828E+00  0.21559913E+00
  0.71741791E+00  0.89361139E+00  0.44325285E+00
  0.82537159E+00  0.61598467E+00  0.24606504E+00
  0.87118207E+00  0.95973677E+00  0.93805072E-01
  0.61122568E-01  0.33607111E+00  0.79067183E+00
  0.44119749E-01  0.90597772E+00  0.14486751E+00
  0.40488116E+00  0.31264030E+00  0.83957254E+00
  0.41511772E+00  0.31891559E+00  0.51295588E+00
  0.25414831E+00  0.66624965E+00  0.78747577E+00
  0.86222801E+00  0.67806412E+00  0.72583367E+00
  0.42820470E+00  0.45626095E+00  0.12941489E+00
  0.87123007E+00  0.86476712E+00  0.65817164E+00
  0.60809536E+00  0.11493445E+00  0.61692614E+00
  0.51725685E+00  0.86672401E+00  0.23817710E+00
  0.50430154E+00  0.58658965E+00  0.96569957E+00
  0.96567511E+00  0.27090338E+00  0.47379992E+00
  0.76377316E+00  0.18854707E+00  0.96276602E-01
  0.95880420E-01  0.68308790E+00  0.54449602E+00
  0.95968040E+00  0.49017014E+00  0.71220576E+00
  0.21664585E+00  0.92203380E+00  0.36066446E+00
  0.63193915E-01  0.39534053E+00  0.24388593E+00
  0.29295205E+00  0.15574328E-01  0.12198556E+00
  0.76997605E+00  0.65915415E+00  0.84800602E+00
  0.42549499E+00  0.91662789E+00  0.62892252E+00
  0.82012169E+00  0.35530478E+00  0.20364733E-01
  0.76068622E+00  0.47160135E+00  0.57654307E+00
  0.29889654E+00  0.43882181E+00  0.79287933E-02
  0.58236071E+00  0.64753684E+00  0.67947648E+00
  0.16939978E+00  0.20760498E+00  0.85028930E+00
  0.37051237E+00  0.24450164E+00  0.37014245E+00
  0.60827267E-01  0.22911474E+00  0.12897910E+00
  0.29823236E+00  0.49076934E+00  0.85881326E+00
  0.46713569E+00  0.27523915E+00  0.81815718E-01
  0.87750077E+00  0.18951982E+00  0.70239406E+00
  0.58265763E+00  0.17195657E+00  0.17432750E+00
  0.59924005E+00  0.49190193E+00  0.69419301E+00
  0.61307184E+00  0.59579415E-01  0.80633451E+00
  0.11491324E+00  0.82897371E+00  0.41542294E+00
  0.37519585E+00  0.48223510E+00  0.34251251E+00
  0.75560938E+00  0.13622146E+00  0.79860221E+00
  0.69999510E+00  0.22367409E+00  0.33229795E+00
  0.86723627E+00  0.20725059E-01  0.38095452E+00
  0.17902010E+00  0.50239467E+00  0.55274607E+00
  0.58180844E+00  0.74537369E+00  0.37103465E+00
  0.12950688E-01  0.82237272E+00  0.91066115E+00
  0.21387266E+00  0.78847553E-01  0.70947409E+00
  0.41893536E+00  0.89044564E-02  0.28331770E+00
  0.91250695E+00  0.61576471E+00  0.38844707E+00
  0.12208697E+00  0.76433089E+00  0.11601956E+00
  0.97233279E+00  0.47768299E+00  0.98739434E+00
  0.44956738E+00  0.75184660E+00  0.96803648E+00
  0.63699509E-01  0.13607348E+00  0.61239538E+00
  0.56900443E+00  0.53486180E-01  0.29940409E-02
  0.24539757E+00  0.13322642E+00  0.40398161E+00
  0.49218055E+00  0.36068249E-01  0.53411647E+00
  0.72249616E+00  0.71548183E+00  0.22183849E-01
  0.31561436E+00  0.92318519E+00  0.95113905E+00
  0.24145881E+00  0.53248971E+00  0.15409077E+00
  0.50276829E+00  0.90956378E+00  0.90475536E+00
  0.39486772E+00  0.65491356E+00  0.42993842E+00
  0.16750859E+00  0.28588477E+00  0.31044563E+00
  0.78929995E+00  0.63448216E+00  0.50590110E+00
  0.56615054E+00  0.49196031E+00  0.33801058E+00
  0.91245822E+00  0.97322470E+00  0.82883849E+00
  0.86508031E-01  0.51893112E+00  0.11212738E+00
  0.69813779E+00  0.11713302E-01  0.49335765E+00
  0.72286494E+00  0.54098047E+00  0.24444570E+00
  0.78506744E+00  0.86999262E+00  0.82614479E-01
  0.11386169E+00  0.39057102E+00  0.67791776E+00
  0.97479726E+00  0.99051653E+00  0.21754817E+00
  0.49611329E+00  0.36196941E+00  0.77148523E+00
  0.44274779E+00  0.38558339E+00  0.62235554E+00