SYSTEM = H2Otest NPT
PREC=normal
ENCUT = 500
EDIFF = 1e-5
NSW = 10000
POTIM = 1.0
PSTRESS = 1e-3  ##kbar
ISMEAR = 0
SIGMA=0.05
ISIF=3
## Thermodynamics state
IBRION=0
IALGO=48
MDALGO = 3
LANGEVIN_GAMMA = 10 10
LANGEVIN_GAMMA_L = 1
PMASS = 5.0
TEBEG=300
NBLOCK=5
KBLOCK=1

