H2O MD
1.000000000
12.444661140 0.000000000 0.000000000
0.000000000 12.444661140 0.000000000
0.000000000 0.000000000 12.444661140
O H
 64 128
Cartesian
9.330823898 1.567999840 3.206523180
6.993500710 6.980959415 8.498586655
7.608933926 1.616821766 9.495450974
14.033781052 9.671825409 4.496154308
4.792753220 6.729388237 4.000177860
-1.899958014 14.077808380 9.347545624
7.426897049 2.918438911 4.927830696
-0.168792203 11.929983139 4.183844566
15.597446442 5.329714298 7.473358631
8.522452354 9.334527969 5.540591717
1.187627196 11.027736664 10.756797791
3.266468287 1.984208345 8.896792412
6.523326874 -0.600319862 4.695363045
12.678980827 7.586814404 3.868285656
1.458724737 -2.646002769 0.704641819
0.947888732 6.677475929 -1.193225861
5.381309509 8.679036140 0.408089846
1.325784802 13.301452637 7.302116871
7.471506596 0.006169942 12.108422279
1.535349607 1.721921563 3.951911688
4.058197021 12.486995697 6.381189823
9.515295029 9.116559982 2.071078062
3.166358471 0.550979376 12.046561241
3.777156115 6.329912186 13.664256096
5.218111038 11.201465607 11.330426216
5.214163303 9.139472961 5.695958138
3.077594280 4.840342045 4.974779606
10.184227943 6.847130299 6.397646904
7.141617298 5.325851440 3.878091335
-2.030199051 11.410595894 -1.860068560
1.166110873 6.372775555 1.625447273
9.983299255 11.653329849 5.575411320
10.104480743 6.301707268 3.316062689
9.878310204 11.694764137 1.324885249
0.845392406 4.880279064 8.812494278
0.236986741 12.248866081 1.322715521
6.292393684 4.047629356 10.567404747
5.421579838 3.882875204 -4.760060310
3.455797434 10.064105034 9.203186035
-2.174944878 8.611724854 -2.895901442
6.441939354 4.755943298 13.764800072
11.977027893 -1.382115722 7.179823875
8.321365356 0.933384001 6.992125034
6.597411633 -2.904590368 15.186275482
7.069755077 6.674618244 -0.928721964
-1.821004748 3.457204819 4.823233604
10.401666641 2.064770222 12.140966415
14.839876175 8.435984612 7.114047050
0.056489144 7.523683548 -4.175817013
3.590711117 10.297206879 2.634043217
13.077769279 4.128588200 15.590620041
4.479390144 0.598282516 14.804368973
-2.874633789 7.658147335 -0.218713194
5.603140354 11.439383507 8.309141159
10.693348885 17.819620132 13.074276924
-3.779696226 4.735670567 7.486640930
3.681094646 4.791805744 11.315608978
7.655607224 9.559639931 7.934271812
13.936465263 3.307940006 11.127274513
4.769490242 2.432760000 4.672931671
12.943252563 2.414635897 0.989863098
3.935904026 6.986250877 9.875770569
6.927088737 1.643555760 1.832202196
-0.377924114 2.882687807 7.164742470
9.696167946 0.661349833 3.336203337
7.002337933 6.926136494 9.476770401
7.203954697 2.487519264 9.769299507
13.408452034 10.454160690 4.417740822
4.133954048 6.157982826 4.380905151
10.709118843 14.525439262 10.226297379
7.191836357 3.714485645 4.534652233
0.338100344 12.751478195 4.334379673
16.413913727 4.773342609 7.647193432
8.177587509 9.576944351 6.430720806
1.736802101 10.620851517 9.991977692
16.085241318 1.273819566 9.432478905
7.090551853 0.144730508 4.933773518
11.822613716 7.628619194 4.239884377
2.349070787 9.849100113 1.069366693
1.821941376 6.935503006 -1.480553269
5.985947132 8.975322723 1.113738179
13.254461288 12.495198250 7.396627903
8.253683090 -0.428568482 12.580130577
2.298317432 1.852845311 4.562497616
3.194912910 12.793230057 6.658796310
9.779936790 8.477366447 2.796802282
2.377095938 -0.038033396 12.162768364
3.909720182 7.250416279 13.459570885
5.288772106 11.198925018 -2.126043797
4.391425133 9.537572861 5.926309109
2.946945667 5.069708347 6.007749081
10.876285553 7.207288265 6.988949776
7.049540520 5.171093464 2.892149448
-2.274430275 11.363128662 -0.933727980
0.776509404 6.983076096 2.390219450
9.339131355 10.892161369 5.378345966
10.633340836 6.021454811 4.036267757
10.804053307 11.974328995 13.838038445
1.017015219 4.215944767 9.517940521
13.014637947 11.296716690 1.169788599
5.340668678 4.020905495 10.835168839
4.924094677 3.023078442 -4.855656147
3.600294352 9.123121262 9.503018379
-1.480997801 8.191028595 -3.415542841
5.467617989 4.902081013 13.588160515
11.109705925 -1.178567648 6.749232292
7.777318001 1.184817314 7.778587818
6.455750942 -2.109152317 15.695503235
6.474801064 7.309260845 -0.526423395
-1.286847949 3.208819628 5.631980419
9.618590355 1.633803010 12.489747047
14.658209801 8.785665512 6.208360195
0.341838449 6.634400845 -3.992499352
3.929093361 11.184002876 2.883068800
13.304944992 4.943716526 15.097849846
3.818706989 0.896378636 1.689387798
-2.484211922 7.704873562 -1.097312570
5.118932724 11.985229492 7.630524158
10.511788368 16.897476196 12.887582779
-3.102481604 5.269303799 7.119391918
16.122707367 5.332624912 12.131706238
7.206917763 8.739309311 8.201982498
14.251854897 2.497028589 10.770291328
4.266168594 3.232383966 4.684986115
13.095919609 2.981231213 1.812479734
3.988186598 6.136762619 10.370656967
6.708062649 2.542929411 1.559712887
11.358313560 2.628947258 7.828542233
8.605851173 1.429635882 2.613357782
7.586390972 6.232332230 8.143878937
7.351541996 13.516774178 10.243124962
14.744783401 9.710825920 3.832989454
4.739168644 6.623605728 3.031201363
9.576467514 14.082676888 9.382101059
8.073657036 2.421557426 4.286600113
-1.014014721 12.051853180 4.651446819
15.825257301 6.283133030 7.543792248
7.778799534 9.181913376 4.929746628
0.282933623 10.853848457 10.548355103
2.526292086 13.948530197 8.510651588
6.426381588 -1.048797607 5.537628174
13.239644051 8.360841751 4.003977299
1.372902751 -2.444365025 -0.236354366
0.635044456 5.925462246 -1.751079321
5.057336330 9.414063454 -0.107664816
0.651676476 13.958425522 6.978631020
7.302963734 0.649210513 12.778254509
1.248757720 2.621840477 3.767668009
4.379661560 13.079885483 5.734746933
9.629385948 8.614423752 1.205206513
3.903084278 -0.061258089 11.847802162
2.864674568 6.229739189 13.951970100
6.109086514 11.583213806 11.680793762
5.055537224 8.299298286 5.302409172
2.238472700 5.041884422 4.536123276
9.524978638 7.560937405 6.320016861
6.617149830 6.035213470 4.092450619
-1.987790823 12.348457336 10.295619965
0.845371246 6.634189129 0.789463639
9.457614899 12.339407921 6.006743908
9.190485954 6.002245903 3.554404259
9.805336952 10.830088615 14.155755997
1.755482078 5.073714256 8.529649734
0.187986508 -0.125144601 14.760764122
6.530470371 5.002143383 10.650326729
5.610548973 3.932729006 -3.791771889
4.307724953 10.436803818 8.901502609
-1.801065326 9.484073639 -2.665894508
6.825804234 5.284972668 13.004055023
12.235848427 -2.232376575 6.834483147
8.284852028 1.782485962 6.451622963
7.561096191 -2.943104029 15.198393822
8.018094063 6.848717690 -0.773038030
9.971286774 2.746683836 4.639090538
11.111981392 1.810638189 12.763596535
15.217444420 9.194561005 7.669524670
0.799147606 7.872199535 -4.700273991
4.337126255 9.689182281 2.564610004
-0.235460594 4.264983177 3.550551891
4.265856743 1.212260365 3.128781557
-2.435231447 6.870995998 0.194204345
6.381613255 10.910735130 7.930938244
10.363089561 17.904130936 14.041400909
-4.242810726 4.277196884 6.779025078
2.868749142 4.370226383 11.214589119
8.306759834 9.752948761 8.672421455
13.609274864 3.133449078 12.053123474
5.743425369 2.637874603 4.850957394
13.160849571 1.474578857 1.034880161
4.470166683 6.957040310 9.090894699
6.106176376 1.187621951 14.699749947
0.100487582 3.669696093 7.581945896
